La1 Mn1 O3                              
   1.00000000000000     
    15.8298823333894649    0.0000000000000000    0.0000000000000001
     0.0000000000000000   15.8097918970125999    0.0000000000000000
     0.0000000000000000    0.0000000000000000   15.8476500754277296
   La   Mn   O    N 
    64    64   189     3
Direct
  0.0017745044192690 -0.0000000000000000  0.0024884615365079
 -0.0031674389006860 -0.0000000000000000  0.2491286676041248
 -0.0031674389006860 -0.0000000000000000  0.5008713323958748
  0.0017745044192690 -0.0000000000000000  0.7475115084634896
 -0.0024295619192728  0.2506436811882610 -0.0067571624610541
  0.0034511358430034  0.2501426071545904  0.2528727071475797
  0.0034511358430034  0.2501426071545904  0.4971272928524202
 -0.0024295619192728  0.2506436811882610  0.7567571324610520
  0.0040888098051869  0.5000000000000000  0.0021261359023928
 -0.0018620261947737  0.5000000000000000  0.2482045217000386
 -0.0018620261947737  0.5000000000000000  0.5017954782999619
  0.0040888098051869  0.5000000000000000  0.7478738340976050
 -0.0024295619192728  0.7493562888117363 -0.0067571624610541
  0.0034511358430034  0.7498573628454074  0.2528727071475797
  0.0034511358430034  0.7498573628454074  0.4971272928524202
 -0.0024295619192728  0.7493562888117363  0.7567571324610520
  0.2437132008217873 -0.0000000000000000 -0.0022233870736976
  0.2540941708527049 -0.0000000000000000  0.2554772371416563
  0.2540941708527049 -0.0000000000000000  0.4945227628583437
  0.2437132008217873 -0.0000000000000000  0.7522233570736954
  0.2538304276056437  0.2519029579873828 -0.0017535896311292
  0.2467978932214646  0.2507576356649608  0.2447437987496958
  0.2467978932214646  0.2507576356649608  0.5052562012503036
  0.2538304276056437  0.2519029579873828  0.7517535596311264
  0.2515884923394238  0.5000000000000000 -0.0022350137948946
  0.2554065225294795  0.5000000000000000  0.2526640959450829
  0.2554065225294795  0.5000000000000000  0.4973359040549172
  0.2515884923394238  0.5000000000000000  0.7522349837948920
  0.2538304276056437  0.7480970120126145 -0.0017535896311292
  0.2467978932214646  0.7492423343350368  0.2447437987496958
  0.2467978932214646  0.7492423343350368  0.5052562012503036
  0.2538304276056437  0.7480970120126145  0.7517535596311264
  0.5062867991782132 -0.0000000000000000 -0.0022233870736976
  0.4959058291472954 -0.0000000000000000  0.2554772371416563
  0.4959058291472954 -0.0000000000000000  0.4945227628583437
  0.5062867991782132 -0.0000000000000000  0.7522233570736954
  0.4961695723943563  0.2519029579873828 -0.0017535896311292
  0.5032021067785353  0.2507576356649608  0.2447437987496958
  0.5032021067785353  0.2507576356649608  0.5052562012503036
  0.4961695723943563  0.2519029579873828  0.7517535596311264
  0.4984115076605762  0.5000000000000000 -0.0022350137948946
  0.4945934774705205  0.5000000000000000  0.2526640959450829
  0.4945934774705205  0.5000000000000000  0.4973359040549172
  0.4984115076605762  0.5000000000000000  0.7522349837948920
  0.4961695723943563  0.7480970120126145 -0.0017535896311292
  0.5032021067785353  0.7492423343350368  0.2447437987496958
  0.5032021067785353  0.7492423343350368  0.5052562012503036
  0.4961695723943563  0.7480970120126145  0.7517535596311264
  0.7482254655807280 -0.0000000000000000  0.0024884615365079
  0.7531674089006835 -0.0000000000000000  0.2491286676041248
  0.7531674089006835 -0.0000000000000000  0.5008713323958748
  0.7482254655807280 -0.0000000000000000  0.7475115084634896
  0.7524295319192700  0.2506436811882610 -0.0067571624610541
  0.7465488341569942  0.2501426071545904  0.2528727071475797
  0.7465488341569942  0.2501426071545904  0.4971272928524202
  0.7524295319192700  0.2506436811882610  0.7567571324610520
  0.7459111601948099  0.5000000000000000  0.0021261359023928
  0.7518619961947708  0.5000000000000000  0.2482045217000386
  0.7518619961947708  0.5000000000000000  0.5017954782999619
  0.7459111601948099  0.5000000000000000  0.7478738340976050
  0.7524295319192700  0.7493562888117363 -0.0067571624610541
  0.7465488341569942  0.7498573628454074  0.2528727071475797
  0.7465488341569942  0.7498573628454074  0.4971272928524202
  0.7524295319192700  0.7493562888117363  0.7567571324610520
  0.1246831467942954  0.1249546075817160  0.1248237271319342
  0.1256561656181295  0.1264402199907685  0.3749999850000023
  0.1246831467942954  0.1249546075817160  0.6251762878680639
  0.1248778591869121  0.1237252945950822  0.8749999850000023
  0.1238731460197866  0.3746038559203860  0.1241984468019357
  0.1248150108714019  0.3742299375275288  0.3749999850000023
  0.1238731460197866  0.3746038559203860  0.6258015681980621
  0.1248014068033835  0.3766943886147248  0.8749999850000023
  0.1238731460197866  0.6253961440796134  0.1241984468019357
  0.1248150108714019  0.6257700624724714  0.3749999850000023
  0.1238731460197866  0.6253961440796134  0.6258015681980621
  0.1248014068033835  0.6233056113852752  0.8749999850000023
  0.1246831467942954  0.8750453774182860  0.1248237271319342
  0.1256561656181295  0.8735597650092337  0.3749999850000023
  0.1246831467942954  0.8750453774182860  0.6251762878680639
  0.1248778591869121  0.8762746904049195  0.8749999850000023
  0.3749999850000023  0.1278698062544052  0.1241595053316557
  0.3749999850000023  0.1228189511331950  0.3749999850000023
  0.3749999850000023  0.1278698062544052  0.6258405096683418
  0.3749999850000023  0.1253657103586313  0.8749999850000023
  0.3749999850000023  0.3757056920386841  0.1253564395280167
  0.3749999850000023  0.3776738354671234  0.3749999850000023
  0.3749999850000023  0.3757056920386841  0.6246435754719812
  0.3749999850000023  0.3765786546003939  0.8749999850000023
  0.3749999850000023  0.6242943079613160  0.1253564395280167
  0.3749999850000023  0.6223261645328768  0.3749999850000023
  0.3749999850000023  0.6242943079613160  0.6246435754719812
  0.3749999850000023  0.6234213453996065  0.8749999850000023
  0.3749999850000023  0.8721301787455965  0.1241595053316557
  0.3749999850000023  0.8771810338668069  0.3749999850000023
  0.3749999850000023  0.8721301787455965  0.6258405096683418
  0.3749999850000023  0.8746342746413704  0.8749999850000023
  0.6253168682057029  0.1249546075817160  0.1248237271319342
  0.6243438493818682  0.1264402199907685  0.3749999850000023
  0.6253168682057029  0.1249546075817160  0.6251762878680639
  0.6251221558130855  0.1237252945950822  0.8749999850000023
  0.6261268689802112  0.3746038559203860  0.1241984468019357
  0.6251850041285957  0.3742299375275288  0.3749999850000023
  0.6261268689802112  0.3746038559203860  0.6258015681980621
  0.6251986081966141  0.3766943886147248  0.8749999850000023
  0.6261268689802112  0.6253961440796134  0.1241984468019357
  0.6251850041285957  0.6257700624724714  0.3749999850000023
  0.6261268689802112  0.6253961440796134  0.6258015681980621
  0.6251986081966141  0.6233056113852752  0.8749999850000023
  0.6253168682057029  0.8750453774182860  0.1248237271319342
  0.6243438493818682  0.8735597650092337  0.3749999850000023
  0.6253168682057029  0.8750453774182860  0.6251762878680639
  0.6251221558130855  0.8762746904049195  0.8749999850000023
  0.8749999850000023  0.1237769945127902  0.1255494102184705
  0.8749999850000023  0.1252878076469689  0.3749999850000023
  0.8749999850000023  0.1237769945127902  0.6244506047815271
  0.8749999850000023  0.1260559611743408  0.8749999850000023
  0.8749999850000023  0.3768568084863532  0.1249951340675850
  0.8749999850000023  0.3751322061448478  0.3749999850000023
  0.8749999850000023  0.3768568084863532  0.6250048809324127
  0.8749999850000023  0.3740684996300692  0.8749999850000023
  0.8749999850000023  0.6231431915136468  0.1249951340675850
  0.8749999850000023  0.6248677938551527  0.3749999850000023
  0.8749999850000023  0.6231431915136468  0.6250048809324127
  0.8749999850000023  0.6259315003699311  0.8749999850000023
  0.8749999850000023  0.8762229904872124  0.1255494102184705
  0.8749999850000023  0.8747121773530334  0.3749999850000023
  0.8749999850000023  0.8762229904872124  0.6244506047815271
  0.8749999850000023  0.8739440238256613  0.8749999850000023
  0.0056450462132210  0.0989781241073087  0.1279839126930110
  0.0051782709381333  0.1464990981573859  0.3749999850000023
  0.0056450462132210  0.0989781241073087  0.6220161023069867
 -0.0015231204753118  0.1294764890205131  0.8749999850000023
  0.0043412654819665  0.3989953790635045  0.1269872699462217
  0.0045243284126406  0.3532822419408833  0.3749999850000023
  0.0043412654819665  0.3989953790635045  0.6230127450537759
 -0.0015663198809018  0.3698585839269724  0.8749999850000023
  0.0043412654819665  0.6010046209364951  0.1269872699462217
  0.0045243284126406  0.6467177580591169  0.3749999850000023
  0.0043412654819665  0.6010046209364951  0.6230127450537759
 -0.0015663198809018  0.6301414160730279  0.8749999850000023
  0.0056450462132210  0.9010218608926940  0.1279839126930110
  0.0051782709381333  0.8535008868426167  0.3749999850000023
  0.0056450462132210  0.9010218608926940  0.6220161023069867
 -0.0015231204753118  0.8705234959794889  0.8749999850000023
  0.2436427800731557  0.1502343736686209  0.1211000402617044
  0.2453110812300004  0.1037542115495955  0.3749999850000023
  0.2436427800731557  0.1502343736686209  0.6288999747382931
  0.2509606507911826  0.1207300388859472  0.8749999850000023
  0.2432502013097379  0.3512953035067971  0.1218091947194241
  0.2438025986187762  0.3973643835799108  0.3749999850000023
  0.2432502013097379  0.3512953035067971  0.6281908202805737
  0.2500595206580079  0.3760477122896839  0.8749999850000023
  0.2432502013097379  0.6487046964932027  0.1218091947194241
  0.2438025986187762  0.6026356164200884  0.3749999850000023
  0.2432502013097379  0.6487046964932027  0.6281908202805737
  0.2500595206580079  0.6239522877103159  0.8749999850000023
  0.2436427800731557  0.8497656113313807  0.1211000402617044
  0.2453110812300004  0.8962457734504066  0.3749999850000023
  0.2436427800731557  0.8497656113313807  0.6288999747382931
  0.2509606507911826  0.8792699461140548  0.8749999850000023
  0.5063572199268446  0.1502343736686209  0.1211000402617044
  0.5046889187699999  0.1037542115495955  0.3749999850000023
  0.5063572199268446  0.1502343736686209  0.6288999747382931
  0.4990393492088174  0.1207300388859472  0.8749999850000023
  0.5067497986902620  0.3512953035067971  0.1218091947194241
  0.5061974013812238  0.3973643835799108  0.3749999850000023
  0.5067497986902620  0.3512953035067971  0.6281908202805737
  0.4999404793419924  0.3760477122896839  0.8749999850000023
  0.5067497986902620  0.6487046964932027  0.1218091947194241
  0.5061974013812238  0.6026356164200884  0.3749999850000023
  0.5067497986902620  0.6487046964932027  0.6281908202805737
  0.4999404793419924  0.6239522877103159  0.8749999850000023
  0.5063572199268446  0.8497656113313807  0.1211000402617044
  0.5046889187699999  0.8962457734504066  0.3749999850000023
  0.5063572199268446  0.8497656113313807  0.6288999747382931
  0.4990393492088174  0.8792699461140548  0.8749999850000023
  0.7443549237867765  0.0989781241073087  0.1279839126930110
  0.7448216990618640  0.1464990981573859  0.3749999850000023
  0.7443549237867765  0.0989781241073087  0.6220161023069867
  0.7515230904753094  0.1294764890205131  0.8749999850000023
  0.7456587045180310  0.3989953790635045  0.1269872699462217
  0.7454756415873568  0.3532822419408833  0.3749999850000023
  0.7456587045180310  0.3989953790635045  0.6230127450537759
  0.7515662898808992  0.3698585839269724  0.8749999850000023
  0.7456587045180310  0.6010046209364951  0.1269872699462217
  0.7454756415873568  0.6467177580591169  0.3749999850000023
  0.7456587045180310  0.6010046209364951  0.6230127450537759
  0.7515662898808992  0.6301414160730279  0.8749999850000023
  0.7443549237867765  0.9010218608926940  0.1279839126930110
  0.7448216990618640  0.8535008868426167  0.3749999850000023
  0.7443549237867765  0.9010218608926940  0.6220161023069867
  0.7515230904753094  0.8705234959794889  0.8749999850000023
  0.1231792429962507  0.1123676302391590  0.0015760047514435
  0.1255560233189306  0.1365967377890487  0.2475994045758097
  0.1255560233189306  0.1365967377890487  0.5024005954241906
  0.1231792429962507  0.1123676302391590  0.7484239652485536
  0.1224388169261135  0.3840487309158078  0.0010043973194148
  0.1241288791575317  0.3624002834443038  0.2476216087350035
  0.1241288791575317  0.3624002834443038  0.5023783912649965
  0.1224388169261135  0.3840487309158078  0.7489955726805824
  0.1224388169261135  0.6159512690841922  0.0010043973194148
  0.1241288791575317  0.6375997165556965  0.2476216087350035
  0.1241288791575317  0.6375997165556965  0.5023783912649965
  0.1224388169261135  0.6159512690841922  0.7489955726805824
  0.1231792429962507  0.8876323547608431  0.0015760047514435
  0.1255560233189306  0.8634032472109540  0.2475994045758097
  0.1255560233189306  0.8634032472109540  0.5024005954241906
  0.1231792429962507  0.8876323547608431  0.7484239652485536
  0.3749999850000023  0.1500939858247172  0.0061188062167412
  0.3749999850000023  0.1023148735916011  0.2433657296288080
  0.3749999850000023  0.1023148735916010  0.5066342703711914
  0.3749999850000023  0.1500939858247172  0.7438811637832562
  0.3749999850000023  0.3540192345318933  0.0043121660774265
  0.3749999850000023  0.3943228229907474  0.2468257468310063
  0.3749999850000023  0.3943228229907474  0.5031742531689937
  0.3749999850000023  0.3540192345318933  0.7456878039225713
  0.3749999850000023  0.6459807654681068  0.0043121660774265
  0.3749999850000023  0.6056771770092524  0.2468257468310063
  0.3749999850000023  0.6056771770092524  0.5031742531689937
  0.3749999850000023  0.6459807654681068  0.7456878039225713
  0.3749999850000023  0.8499059991752855  0.0061188062167412
  0.3749999850000023  0.8976851114084018  0.2433657296288080
  0.3749999850000023  0.8976851114084018  0.5066342703711914
  0.3749999850000023  0.8499059991752855  0.7438811637832562
  0.6268207720037471  0.1123676302391590  0.0015760047514435
  0.6244439916810671  0.1365967377890486  0.2475994045758097
  0.6244439916810671  0.1365967377890486  0.5024005954241906
  0.6268207720037471  0.1123676302391590  0.7484239652485535
  0.6275611980738842  0.3840487309158078  0.0010043973194148
  0.6258711358424661  0.3624002834443038  0.2476216087350035
  0.6258711358424661  0.3624002834443038  0.5023783912649965
  0.6275611980738842  0.3840487309158078  0.7489955726805824
  0.6275611980738842  0.6159512690841922  0.0010043973194148
  0.6258711358424661  0.6375997165556965  0.2476216087350035
  0.6258711358424661  0.6375997165556965  0.5023783912649965
  0.6275611980738842  0.6159512690841922  0.7489955726805824
  0.6268207720037471  0.8876323547608431  0.0015760047514435
  0.6244439916810671  0.8634032472109540  0.2475994045758097
  0.6244439916810671  0.8634032472109540  0.5024005954241906
  0.6268207720037471  0.8876323547608431  0.7484239652485535
  0.8749999850000023  0.1486605537602204  0.0072379994328041
  0.8749999850000023  0.1025866941019971  0.2459391517121292
  0.8749999850000023  0.1025866941019971  0.5040608482878708
  0.8749999850000023  0.1486605537602204  0.7427619705671935
  0.8749999850000023  0.3494746203236709  0.0072887250220993
  0.8749999850000023  0.3976553108398979  0.2449364831420380
  0.8749999850000023  0.3976553108398979  0.5050635168579625
  0.8749999850000023  0.3494746203236709  0.7427112449778980
  0.8749999850000023  0.6505253796763293  0.0072887250220993
  0.8749999850000023  0.6023446891601025  0.2449364831420380
  0.8749999850000023  0.6023446891601025  0.5050635168579625
  0.8749999850000023  0.6505253796763293  0.7427112449778980
  0.8749999850000023  0.8513394312397818  0.0072379994328041
  0.8749999850000023  0.8974132908980050  0.2459391517121292
  0.8749999850000023  0.8974132908980050  0.5040608482878708
  0.8749999850000023  0.8513394312397818  0.7427619705671935
  0.1568542987499967 -0.0000000000000000  0.1333936347078760
  0.0991358561950732 -0.0000000000000000  0.3749999850000023
  0.1568542987499967 -0.0000000000000000  0.6166063802921219
  0.1244556139990664 -0.0000000000000000  0.8749999850000023
  0.0928580088802514  0.2494125232209805  0.1155123210202559
  0.1515343893078981  0.2498876449231658  0.3749999850000023
  0.0928580088802514  0.2494125232209805  0.6344876939797419
  0.1258960497743663  0.2498752635324955  0.8749999850000023
  0.1510156194151925  0.5000000000000000  0.1341016000893800
  0.0961557884270374  0.5000000000000000  0.3749999850000023
  0.1510156194151925  0.5000000000000000  0.6158984149106176
  0.1219581686134774  0.5000000000000000  0.8749999850000023
  0.0928580088802514  0.7505874467790173  0.1155123210202559
  0.1515343893078981  0.7501123250768317  0.3749999850000023
  0.0928580088802514  0.7505874467790173  0.6344876939797419
  0.1258960497743663  0.7501247064675022  0.8749999850000023
  0.3749999850000023 -0.0000000000000000  0.0942573706559492
  0.3749999850000023 -0.0000000000000000  0.3749999850000023
  0.3749999850000023 -0.0000000000000000  0.6557426443440485
  0.3749999850000023 -0.0000000000000000  0.8749999850000023
  0.3749999850000023  0.2506551389476298  0.1570156013279998
  0.3749999850000023  0.2503225742741063  0.3749999850000023
  0.3749999850000023  0.2506551389476298  0.5929844136719977
  0.3749999850000023  0.2498296957585897  0.8749999850000023
  0.3749999850000023  0.5000000000000000  0.3749999850000023
  0.3749999850000023  0.7493448310523680  0.1570156013279998
  0.3749999850000023  0.7496773957258912  0.3749999850000023
  0.3749999850000023  0.7493448310523680  0.5929844136719977
  0.3749999850000023  0.7501702742414079  0.8749999850000023
  0.5931457162500011 -0.0000000000000000  0.1333936347078760
  0.6508641588049239 -0.0000000000000000  0.3749999850000023
  0.5931457162500011 -0.0000000000000000  0.6166063802921219
  0.6255444010009323 -0.0000000000000000  0.8749999850000023
  0.6571420061197465  0.2494125232209805  0.1155123210202559
  0.5984656256920998  0.2498876449231658  0.3749999850000023
  0.6571420061197465  0.2494125232209805  0.6344876939797419
  0.6241039652256315  0.2498752635324955  0.8749999850000023
  0.5989843955848051  0.5000000000000000  0.1341016000893800
  0.6538442265729600  0.5000000000000000  0.3749999850000023
  0.5989843955848052  0.5000000000000000  0.6158984149106176
  0.6280418463865203  0.5000000000000000  0.8749999850000023
  0.6571420061197465  0.7505874467790173  0.1155123210202559
  0.5984656256920998  0.7501123250768317  0.3749999850000023
  0.6571420061197465  0.7505874467790173  0.6344876939797419
  0.6241039652256315  0.7501247064675021  0.8749999850000023
  0.8749999850000023 -0.0000000000000000  0.0910113173083177
  0.8749999850000023 -0.0000000000000000  0.3749999850000023
  0.8749999850000023 -0.0000000000000000  0.6589886976916794
  0.8749999850000023 -0.0000000000000000  0.8749999850000023
  0.8749999850000023  0.2494417679141721  0.1556426921416432
  0.8749999850000023  0.2500413313357113  0.3749999850000023
  0.8749999850000023  0.2494417679141721  0.5943573228583547
  0.8749999850000023  0.2496752417551595  0.8749999850000023
  0.8749999850000023  0.5000000000000000  0.0872838622915785
  0.8749999850000023  0.5000000000000000  0.3749999850000023
  0.8749999850000023  0.5000000000000000  0.6627161527084199
  0.8749999850000023  0.5000000000000000  0.8749999850000023
  0.8749999850000023  0.7505582020858254  0.1556426921416432
  0.8749999850000023  0.7499586386642864  0.3749999850000023
  0.8749999850000023  0.7505582020858254  0.5943573228583547
  0.8749999850000023  0.7503247282448381  0.8749999850000023
  0.3749999850000023  0.5000000000000000  0.1001257383837578
  0.3749999850000023  0.5000000000000000  0.6498742766162398
  0.3749999850000023  0.5000000000000000  0.8749999850000023
 
  0.00000000E+00  0.00000000E+00  0.00000000E+00
  0.00000000E+00  0.00000000E+00  0.00000000E+00
  0.00000000E+00  0.00000000E+00  0.00000000E+00
  0.00000000E+00  0.00000000E+00  0.00000000E+00
  0.00000000E+00  0.00000000E+00  0.00000000E+00
  0.00000000E+00  0.00000000E+00  0.00000000E+00
  0.00000000E+00  0.00000000E+00  0.00000000E+00
  0.00000000E+00  0.00000000E+00  0.00000000E+00
  0.00000000E+00  0.00000000E+00  0.00000000E+00
  0.00000000E+00  0.00000000E+00  0.00000000E+00
  0.00000000E+00  0.00000000E+00  0.00000000E+00
  0.00000000E+00  0.00000000E+00  0.00000000E+00
  0.00000000E+00  0.00000000E+00  0.00000000E+00
  0.00000000E+00  0.00000000E+00  0.00000000E+00
  0.00000000E+00  0.00000000E+00  0.00000000E+00
  0.00000000E+00  0.00000000E+00  0.00000000E+00
  0.00000000E+00  0.00000000E+00  0.00000000E+00
  0.00000000E+00  0.00000000E+00  0.00000000E+00
  0.00000000E+00  0.00000000E+00  0.00000000E+00
  0.00000000E+00  0.00000000E+00  0.00000000E+00
  0.00000000E+00  0.00000000E+00  0.00000000E+00
  0.00000000E+00  0.00000000E+00  0.00000000E+00
  0.00000000E+00  0.00000000E+00  0.00000000E+00
  0.00000000E+00  0.00000000E+00  0.00000000E+00
  0.00000000E+00  0.00000000E+00  0.00000000E+00
  0.00000000E+00  0.00000000E+00  0.00000000E+00
  0.00000000E+00  0.00000000E+00  0.00000000E+00
  0.00000000E+00  0.00000000E+00  0.00000000E+00
  0.00000000E+00  0.00000000E+00  0.00000000E+00
  0.00000000E+00  0.00000000E+00  0.00000000E+00
  0.00000000E+00  0.00000000E+00  0.00000000E+00
  0.00000000E+00  0.00000000E+00  0.00000000E+00
  0.00000000E+00  0.00000000E+00  0.00000000E+00
  0.00000000E+00  0.00000000E+00  0.00000000E+00
  0.00000000E+00  0.00000000E+00  0.00000000E+00
  0.00000000E+00  0.00000000E+00  0.00000000E+00
  0.00000000E+00  0.00000000E+00  0.00000000E+00
  0.00000000E+00  0.00000000E+00  0.00000000E+00
  0.00000000E+00  0.00000000E+00  0.00000000E+00
  0.00000000E+00  0.00000000E+00  0.00000000E+00
  0.00000000E+00  0.00000000E+00  0.00000000E+00
  0.00000000E+00  0.00000000E+00  0.00000000E+00
  0.00000000E+00  0.00000000E+00  0.00000000E+00
  0.00000000E+00  0.00000000E+00  0.00000000E+00
  0.00000000E+00  0.00000000E+00  0.00000000E+00
  0.00000000E+00  0.00000000E+00  0.00000000E+00
  0.00000000E+00  0.00000000E+00  0.00000000E+00
  0.00000000E+00  0.00000000E+00  0.00000000E+00
  0.00000000E+00  0.00000000E+00  0.00000000E+00
  0.00000000E+00  0.00000000E+00  0.00000000E+00
  0.00000000E+00  0.00000000E+00  0.00000000E+00
  0.00000000E+00  0.00000000E+00  0.00000000E+00
  0.00000000E+00  0.00000000E+00  0.00000000E+00
  0.00000000E+00  0.00000000E+00  0.00000000E+00
  0.00000000E+00  0.00000000E+00  0.00000000E+00
  0.00000000E+00  0.00000000E+00  0.00000000E+00
  0.00000000E+00  0.00000000E+00  0.00000000E+00
  0.00000000E+00  0.00000000E+00  0.00000000E+00
  0.00000000E+00  0.00000000E+00  0.00000000E+00
  0.00000000E+00  0.00000000E+00  0.00000000E+00
  0.00000000E+00  0.00000000E+00  0.00000000E+00
  0.00000000E+00  0.00000000E+00  0.00000000E+00
  0.00000000E+00  0.00000000E+00  0.00000000E+00
  0.00000000E+00  0.00000000E+00  0.00000000E+00
  0.00000000E+00  0.00000000E+00  0.00000000E+00
  0.00000000E+00  0.00000000E+00  0.00000000E+00
  0.00000000E+00  0.00000000E+00  0.00000000E+00
  0.00000000E+00  0.00000000E+00  0.00000000E+00
  0.00000000E+00  0.00000000E+00  0.00000000E+00
  0.00000000E+00  0.00000000E+00  0.00000000E+00
  0.00000000E+00  0.00000000E+00  0.00000000E+00
  0.00000000E+00  0.00000000E+00  0.00000000E+00
  0.00000000E+00  0.00000000E+00  0.00000000E+00
  0.00000000E+00  0.00000000E+00  0.00000000E+00
  0.00000000E+00  0.00000000E+00  0.00000000E+00
  0.00000000E+00  0.00000000E+00  0.00000000E+00
  0.00000000E+00  0.00000000E+00  0.00000000E+00
  0.00000000E+00  0.00000000E+00  0.00000000E+00
  0.00000000E+00  0.00000000E+00  0.00000000E+00
  0.00000000E+00  0.00000000E+00  0.00000000E+00
  0.00000000E+00  0.00000000E+00  0.00000000E+00
  0.00000000E+00  0.00000000E+00  0.00000000E+00
  0.00000000E+00  0.00000000E+00  0.00000000E+00
  0.00000000E+00  0.00000000E+00  0.00000000E+00
  0.00000000E+00  0.00000000E+00  0.00000000E+00
  0.00000000E+00  0.00000000E+00  0.00000000E+00
  0.00000000E+00  0.00000000E+00  0.00000000E+00
  0.00000000E+00  0.00000000E+00  0.00000000E+00
  0.00000000E+00  0.00000000E+00  0.00000000E+00
  0.00000000E+00  0.00000000E+00  0.00000000E+00
  0.00000000E+00  0.00000000E+00  0.00000000E+00
  0.00000000E+00  0.00000000E+00  0.00000000E+00
  0.00000000E+00  0.00000000E+00  0.00000000E+00
  0.00000000E+00  0.00000000E+00  0.00000000E+00
  0.00000000E+00  0.00000000E+00  0.00000000E+00
  0.00000000E+00  0.00000000E+00  0.00000000E+00
  0.00000000E+00  0.00000000E+00  0.00000000E+00
  0.00000000E+00  0.00000000E+00  0.00000000E+00
  0.00000000E+00  0.00000000E+00  0.00000000E+00
  0.00000000E+00  0.00000000E+00  0.00000000E+00
  0.00000000E+00  0.00000000E+00  0.00000000E+00
  0.00000000E+00  0.00000000E+00  0.00000000E+00
  0.00000000E+00  0.00000000E+00  0.00000000E+00
  0.00000000E+00  0.00000000E+00  0.00000000E+00
  0.00000000E+00  0.00000000E+00  0.00000000E+00
  0.00000000E+00  0.00000000E+00  0.00000000E+00
  0.00000000E+00  0.00000000E+00  0.00000000E+00
  0.00000000E+00  0.00000000E+00  0.00000000E+00
  0.00000000E+00  0.00000000E+00  0.00000000E+00
  0.00000000E+00  0.00000000E+00  0.00000000E+00
  0.00000000E+00  0.00000000E+00  0.00000000E+00
  0.00000000E+00  0.00000000E+00  0.00000000E+00
  0.00000000E+00  0.00000000E+00  0.00000000E+00
  0.00000000E+00  0.00000000E+00  0.00000000E+00
  0.00000000E+00  0.00000000E+00  0.00000000E+00
  0.00000000E+00  0.00000000E+00  0.00000000E+00
  0.00000000E+00  0.00000000E+00  0.00000000E+00
  0.00000000E+00  0.00000000E+00  0.00000000E+00
  0.00000000E+00  0.00000000E+00  0.00000000E+00
  0.00000000E+00  0.00000000E+00  0.00000000E+00
  0.00000000E+00  0.00000000E+00  0.00000000E+00
  0.00000000E+00  0.00000000E+00  0.00000000E+00
  0.00000000E+00  0.00000000E+00  0.00000000E+00
  0.00000000E+00  0.00000000E+00  0.00000000E+00
  0.00000000E+00  0.00000000E+00  0.00000000E+00
  0.00000000E+00  0.00000000E+00  0.00000000E+00
  0.00000000E+00  0.00000000E+00  0.00000000E+00
  0.00000000E+00  0.00000000E+00  0.00000000E+00
  0.00000000E+00  0.00000000E+00  0.00000000E+00
  0.00000000E+00  0.00000000E+00  0.00000000E+00
  0.00000000E+00  0.00000000E+00  0.00000000E+00
  0.00000000E+00  0.00000000E+00  0.00000000E+00
  0.00000000E+00  0.00000000E+00  0.00000000E+00
  0.00000000E+00  0.00000000E+00  0.00000000E+00
  0.00000000E+00  0.00000000E+00  0.00000000E+00
  0.00000000E+00  0.00000000E+00  0.00000000E+00
  0.00000000E+00  0.00000000E+00  0.00000000E+00
  0.00000000E+00  0.00000000E+00  0.00000000E+00
  0.00000000E+00  0.00000000E+00  0.00000000E+00
  0.00000000E+00  0.00000000E+00  0.00000000E+00
  0.00000000E+00  0.00000000E+00  0.00000000E+00
  0.00000000E+00  0.00000000E+00  0.00000000E+00
  0.00000000E+00  0.00000000E+00  0.00000000E+00
  0.00000000E+00  0.00000000E+00  0.00000000E+00
  0.00000000E+00  0.00000000E+00  0.00000000E+00
  0.00000000E+00  0.00000000E+00  0.00000000E+00
  0.00000000E+00  0.00000000E+00  0.00000000E+00
  0.00000000E+00  0.00000000E+00  0.00000000E+00
  0.00000000E+00  0.00000000E+00  0.00000000E+00
  0.00000000E+00  0.00000000E+00  0.00000000E+00
  0.00000000E+00  0.00000000E+00  0.00000000E+00
  0.00000000E+00  0.00000000E+00  0.00000000E+00
  0.00000000E+00  0.00000000E+00  0.00000000E+00
  0.00000000E+00  0.00000000E+00  0.00000000E+00
  0.00000000E+00  0.00000000E+00  0.00000000E+00
  0.00000000E+00  0.00000000E+00  0.00000000E+00
  0.00000000E+00  0.00000000E+00  0.00000000E+00
  0.00000000E+00  0.00000000E+00  0.00000000E+00
  0.00000000E+00  0.00000000E+00  0.00000000E+00
  0.00000000E+00  0.00000000E+00  0.00000000E+00
  0.00000000E+00  0.00000000E+00  0.00000000E+00
  0.00000000E+00  0.00000000E+00  0.00000000E+00
  0.00000000E+00  0.00000000E+00  0.00000000E+00
  0.00000000E+00  0.00000000E+00  0.00000000E+00
  0.00000000E+00  0.00000000E+00  0.00000000E+00
  0.00000000E+00  0.00000000E+00  0.00000000E+00
  0.00000000E+00  0.00000000E+00  0.00000000E+00
  0.00000000E+00  0.00000000E+00  0.00000000E+00
  0.00000000E+00  0.00000000E+00  0.00000000E+00
  0.00000000E+00  0.00000000E+00  0.00000000E+00
  0.00000000E+00  0.00000000E+00  0.00000000E+00
  0.00000000E+00  0.00000000E+00  0.00000000E+00
  0.00000000E+00  0.00000000E+00  0.00000000E+00
  0.00000000E+00  0.00000000E+00  0.00000000E+00
  0.00000000E+00  0.00000000E+00  0.00000000E+00
  0.00000000E+00  0.00000000E+00  0.00000000E+00
  0.00000000E+00  0.00000000E+00  0.00000000E+00
  0.00000000E+00  0.00000000E+00  0.00000000E+00
  0.00000000E+00  0.00000000E+00  0.00000000E+00
  0.00000000E+00  0.00000000E+00  0.00000000E+00
  0.00000000E+00  0.00000000E+00  0.00000000E+00
  0.00000000E+00  0.00000000E+00  0.00000000E+00
  0.00000000E+00  0.00000000E+00  0.00000000E+00
  0.00000000E+00  0.00000000E+00  0.00000000E+00
  0.00000000E+00  0.00000000E+00  0.00000000E+00
  0.00000000E+00  0.00000000E+00  0.00000000E+00
  0.00000000E+00  0.00000000E+00  0.00000000E+00
  0.00000000E+00  0.00000000E+00  0.00000000E+00
  0.00000000E+00  0.00000000E+00  0.00000000E+00
  0.00000000E+00  0.00000000E+00  0.00000000E+00
  0.00000000E+00  0.00000000E+00  0.00000000E+00
  0.00000000E+00  0.00000000E+00  0.00000000E+00
  0.00000000E+00  0.00000000E+00  0.00000000E+00
  0.00000000E+00  0.00000000E+00  0.00000000E+00
  0.00000000E+00  0.00000000E+00  0.00000000E+00
  0.00000000E+00  0.00000000E+00  0.00000000E+00
  0.00000000E+00  0.00000000E+00  0.00000000E+00
  0.00000000E+00  0.00000000E+00  0.00000000E+00
  0.00000000E+00  0.00000000E+00  0.00000000E+00
  0.00000000E+00  0.00000000E+00  0.00000000E+00
  0.00000000E+00  0.00000000E+00  0.00000000E+00
  0.00000000E+00  0.00000000E+00  0.00000000E+00
  0.00000000E+00  0.00000000E+00  0.00000000E+00
  0.00000000E+00  0.00000000E+00  0.00000000E+00
  0.00000000E+00  0.00000000E+00  0.00000000E+00
  0.00000000E+00  0.00000000E+00  0.00000000E+00
  0.00000000E+00  0.00000000E+00  0.00000000E+00