La1 Mn1 O3                              
   1.00000000000000     
    15.7619645008434350    0.0000000000000000    0.0000000000000000
     0.0000000000000000   15.7541225720364242    0.0000000000000000
     0.0000000000000000    0.0000000000000000   15.6797550159686079
   La   Mn   O    N 
    64    64   188     4
Direct
 -0.0002487776755101  0.0000000000000000  0.0000000000000000
 -0.0002487776755101  0.0000000000000000  0.2500000000000000
 -0.0002487776755101  0.0000000000000000  0.5000000000000000
 -0.0002487776755101  0.0000000000000000  0.7499999699999975
  0.0003804473950178  0.2505585183685753  0.0000000000000000
  0.0003804473950178  0.2505585183685753  0.2500000000000000
  0.0003804473950178  0.2505585183685753  0.5000000000000000
  0.0003804473950178  0.2505585183685753  0.7499999699999975
  0.0018075883040716  0.5000000000000000  0.0000000000000000
  0.0018075883040716  0.5000000000000000  0.2500000000000000
  0.0018075883040716  0.5000000000000000  0.5000000000000000
  0.0018075883040716  0.5000000000000000  0.7499999699999975
  0.0003804473950178  0.7494414516314222  0.0000000000000000
  0.0003804473950178  0.7494414516314222  0.2500000000000000
  0.0003804473950178  0.7494414516314222  0.5000000000000000
  0.0003804473950178  0.7494414516314222  0.7499999699999975
  0.2494314432606549  0.0000000000000000  0.0000000000000000
  0.2494314432606549  0.0000000000000000  0.2500000000000000
  0.2494314432606549  0.0000000000000000  0.5000000000000000
  0.2494314432606549  0.0000000000000000  0.7499999699999975
  0.2512794861272177  0.2507744767206512  0.0000000000000000
  0.2512794861272177  0.2507744767206512  0.2500000000000000
  0.2512794861272177  0.2507744767206512  0.5000000000000000
  0.2512794861272177  0.2507744767206512  0.7499999699999975
  0.2560580087154807  0.5000000000000000  0.0000000000000000
  0.2560580087154807  0.5000000000000000  0.2500000000000000
  0.2560580087154807  0.5000000000000000  0.5000000000000000
  0.2560580087154807  0.5000000000000000  0.7499999699999975
  0.2512794861272177  0.7492254932793462  0.0000000000000000
  0.2512794861272177  0.7492254932793462  0.2500000000000000
  0.2512794861272177  0.7492254932793462  0.5000000000000000
  0.2512794861272177  0.7492254932793462  0.7499999699999975
  0.5005685567393451  0.0000000000000000  0.0000000000000000
  0.5005685567393451  0.0000000000000000  0.2500000000000000
  0.5005685567393451  0.0000000000000000  0.5000000000000000
  0.5005685567393451  0.0000000000000000  0.7499999699999975
  0.4987205138727823  0.2507744767206512 -0.0000000000000000
  0.4987205138727823  0.2507744767206512  0.2500000000000000
  0.4987205138727823  0.2507744767206512  0.5000000000000000
  0.4987205138727823  0.2507744767206512  0.7499999699999975
  0.4939419912845193  0.5000000000000000 -0.0000000000000000
  0.4939419912845193  0.5000000000000000  0.2500000000000000
  0.4939419912845193  0.5000000000000000  0.5000000000000000
  0.4939419912845193  0.5000000000000000  0.7499999699999975
  0.4987205138727823  0.7492254932793462 -0.0000000000000000
  0.4987205138727823  0.7492254932793462  0.2500000000000000
  0.4987205138727823  0.7492254932793462  0.5000000000000000
  0.4987205138727823  0.7492254932793462  0.7499999699999975
  0.7502487476755075  0.0000000000000000  0.0000000000000000
  0.7502487476755075  0.0000000000000000  0.2500000000000000
  0.7502487476755075  0.0000000000000000  0.5000000000000000
  0.7502487476755075  0.0000000000000000  0.7499999699999975
  0.7496195226049795  0.2505585183685753 -0.0000000000000000
  0.7496195226049795  0.2505585183685753  0.2500000000000000
  0.7496195226049795  0.2505585183685753  0.5000000000000000
  0.7496195226049795  0.2505585183685753  0.7499999699999975
  0.7481923816959258  0.5000000000000000 -0.0000000000000000
  0.7481923816959258  0.5000000000000000  0.2500000000000000
  0.7481923816959258  0.5000000000000000  0.5000000000000000
  0.7481923816959258  0.5000000000000000  0.7499999699999975
  0.7496195226049795  0.7494414516314222 -0.0000000000000000
  0.7496195226049795  0.7494414516314222  0.2500000000000000
  0.7496195226049795  0.7494414516314222  0.5000000000000000
  0.7496195226049795  0.7494414516314222  0.7499999699999975
  0.1249229075810408  0.1249508388574747  0.1250000000000000
  0.1249229075810408  0.1249508388574747  0.3749999850000023
  0.1249229075810408  0.1249508388574747  0.6250000149999977
  0.1249229075810408  0.1249508388574747  0.8749999850000023
  0.1250733939919259  0.3749127726339773  0.1250000000000000
  0.1250733939919259  0.3749127726339773  0.3749999850000023
  0.1250733939919259  0.3749127726339773  0.6250000149999977
  0.1250733939919259  0.3749127726339773  0.8749999850000023
  0.1250733939919259  0.6250872273660225  0.1250000000000000
  0.1250733939919259  0.6250872273660225  0.3749999850000023
  0.1250733939919259  0.6250872273660225  0.6250000149999977
  0.1250733939919259  0.6250872273660225  0.8749999850000023
  0.1249229075810408  0.8750491461425276  0.1250000000000000
  0.1249229075810408  0.8750491461425276  0.3749999850000023
  0.1249229075810408  0.8750491461425276  0.6250000149999977
  0.1249229075810408  0.8750491461425276  0.8749999850000023
  0.3749999850000023  0.1244846980088596  0.1250000000000000
  0.3749999850000023  0.1244846980088596  0.3749999850000023
  0.3749999850000023  0.1244846980088596  0.6250000149999977
  0.3749999850000023  0.1244846980088596  0.8749999850000023
  0.3749999850000023  0.3759358485338907  0.1250000000000000
  0.3749999850000023  0.3759358485338907  0.3749999850000023
  0.3749999850000023  0.3759358485338907  0.6250000149999977
  0.3749999850000023  0.3759358485338907  0.8749999850000023
  0.3749999850000023  0.6240641514661091  0.1250000000000000
  0.3749999850000023  0.6240641514661091  0.3749999850000023
  0.3749999850000023  0.6240641514661091  0.6250000149999977
  0.3749999850000023  0.6240641514661091  0.8749999850000023
  0.3749999850000023  0.8755152869911430  0.1250000000000000
  0.3749999850000023  0.8755152869911430  0.3749999850000023
  0.3749999850000023  0.8755152869911430  0.6250000149999977
  0.3749999850000023  0.8755152869911430  0.8749999850000023
  0.6250771074189569  0.1249508388574747  0.1250000000000000
  0.6250771074189569  0.1249508388574747  0.3749999850000023
  0.6250771074189569  0.1249508388574747  0.6250000149999977
  0.6250771074189569  0.1249508388574747  0.8749999850000023
  0.6249266210080718  0.3749127726339773  0.1250000000000000
  0.6249266210080718  0.3749127726339773  0.3749999850000023
  0.6249266210080718  0.3749127726339773  0.6250000149999977
  0.6249266210080718  0.3749127726339773  0.8749999850000023
  0.6249266210080718  0.6250872273660225  0.1250000000000000
  0.6249266210080718  0.6250872273660225  0.3749999850000023
  0.6249266210080718  0.6250872273660225  0.6250000149999977
  0.6249266210080718  0.6250872273660225  0.8749999850000023
  0.6250771074189569  0.8750491461425276  0.1250000000000000
  0.6250771074189569  0.8750491461425276  0.3749999850000023
  0.6250771074189569  0.8750491461425276  0.6250000149999977
  0.6250771074189569  0.8750491461425276  0.8749999850000023
  0.8749999850000023  0.1250287861510617  0.1250000000000000
  0.8749999850000023  0.1250287861510617  0.3749999850000023
  0.8749999850000023  0.1250287861510617  0.6250000149999977
  0.8749999850000023  0.1250287861510617  0.8749999850000023
  0.8749999850000023  0.3752084205512444  0.1250000000000000
  0.8749999850000023  0.3752084205512444  0.3749999850000023
  0.8749999850000023  0.3752084205512444  0.6250000149999977
  0.8749999850000023  0.3752084205512444  0.8749999850000023
  0.8749999850000023  0.6247915794487556  0.1250000000000000
  0.8749999850000023  0.6247915794487556  0.3749999850000023
  0.8749999850000023  0.6247915794487556  0.6250000149999977
  0.8749999850000023  0.6247915794487556  0.8749999850000023
  0.8749999850000023  0.8749711988489408  0.1250000000000000
  0.8749999850000023  0.8749711988489408  0.3749999850000023
  0.8749999850000023  0.8749711988489408  0.6250000149999977
  0.8749999850000023  0.8749711988489408  0.8749999850000023
 -0.0001873368500937  0.1243187952924968  0.1250000000000000
 -0.0001873368500937  0.1243187952924968  0.3749999850000023
 -0.0001873368500937  0.1243187952924968  0.6250000149999977
 -0.0001873368500937  0.1243187952924968  0.8749999850000023
 -0.0006350963919392  0.3747443809186753  0.1250000000000000
 -0.0006350963919392  0.3747443809186753  0.3749999850000023
 -0.0006350963919392  0.3747443809186753  0.6250000149999977
 -0.0006350963919392  0.3747443809186753  0.8749999850000023
 -0.0006350963919392  0.6252556190813249  0.1250000000000000
 -0.0006350963919392  0.6252556190813249  0.3749999850000023
 -0.0006350963919392  0.6252556190813249  0.6250000149999977
 -0.0006350963919392  0.6252556190813249  0.8749999850000023
 -0.0001873368500937  0.8756811897075054  0.1250000000000000
 -0.0001873368500937  0.8756811897075054  0.3749999850000023
 -0.0001873368500937  0.8756811897075054  0.6250000149999977
 -0.0001873368500937  0.8756811897075054  0.8749999850000023
  0.2500805919600874  0.1242809927411234  0.1250000000000000
  0.2500805919600874  0.1242809927411234  0.3749999850000023
  0.2500805919600874  0.1242809927411234  0.6250000149999977
  0.2500805919600874  0.1242809927411234  0.8749999850000023
  0.2505368912411221  0.3707283231561106  0.1250000000000000
  0.2505368912411221  0.3707283231561106  0.3749999850000023
  0.2505368912411221  0.3707283231561106  0.6250000149999977
  0.2505368912411221  0.3707283231561106  0.8749999850000023
  0.2505368912411221  0.6292716768438895  0.1250000000000000
  0.2505368912411221  0.6292716768438895  0.3749999850000023
  0.2505368912411221  0.6292716768438895  0.6250000149999977
  0.2505368912411221  0.6292716768438895  0.8749999850000023
  0.2500805919600874  0.8757189922588788  0.1250000000000000
  0.2500805919600874  0.8757189922588788  0.3749999850000023
  0.2500805919600874  0.8757189922588788  0.6250000149999977
  0.2500805919600874  0.8757189922588788  0.8749999850000023
  0.4999194080399126  0.1242809927411234  0.1250000000000000
  0.4999194080399126  0.1242809927411234  0.3749999850000023
  0.4999194080399126  0.1242809927411234  0.6250000149999977
  0.4999194080399126  0.1242809927411234  0.8749999850000023
  0.4994631087588779  0.3707283231561106  0.1250000000000000
  0.4994631087588779  0.3707283231561106  0.3749999850000023
  0.4994631087588779  0.3707283231561106  0.6250000149999977
  0.4994631087588779  0.3707283231561106  0.8749999850000023
  0.4994631087588779  0.6292716768438895  0.1250000000000000
  0.4994631087588779  0.6292716768438895  0.3749999850000023
  0.4994631087588779  0.6292716768438895  0.6250000149999977
  0.4994631087588779  0.6292716768438895  0.8749999850000023
  0.4999194080399126  0.8757189922588788  0.1250000000000000
  0.4999194080399126  0.8757189922588788  0.3749999850000023
  0.4999194080399126  0.8757189922588788  0.6250000149999977
  0.4999194080399126  0.8757189922588788  0.8749999850000023
  0.7501873068500912  0.1243187952924968  0.1250000000000000
  0.7501873068500912  0.1243187952924968  0.3749999850000023
  0.7501873068500912  0.1243187952924968  0.6250000149999977
  0.7501873068500912  0.1243187952924968  0.8749999850000023
  0.7506350663919369  0.3747443809186753  0.1250000000000000
  0.7506350663919369  0.3747443809186753  0.3749999850000023
  0.7506350663919369  0.3747443809186753  0.6250000149999977
  0.7506350663919369  0.3747443809186753  0.8749999850000023
  0.7506350663919369  0.6252556190813249  0.1250000000000000
  0.7506350663919369  0.6252556190813249  0.3749999850000023
  0.7506350663919369  0.6252556190813249  0.6250000149999977
  0.7506350663919369  0.6252556190813249  0.8749999850000023
  0.7501873068500912  0.8756811897075054  0.1250000000000000
  0.7501873068500912  0.8756811897075054  0.3749999850000023
  0.7501873068500912  0.8756811897075054  0.6250000149999977
  0.7501873068500912  0.8756811897075054  0.8749999850000023
  0.1247770080534384  0.1242448667534750  0.0000000000000000
  0.1247770080534384  0.1242448667534750  0.2500000000000000
  0.1247770080534384  0.1242448667534750  0.5000000000000000
  0.1247770080534384  0.1242448667534750  0.7499999699999975
  0.1241194450010788  0.3737999472176883  0.0000000000000000
  0.1241194450010788  0.3737999472176883  0.2500000000000000
  0.1241194450010788  0.3737999472176883  0.5000000000000000
  0.1241194450010788  0.3737999472176883  0.7499999699999975
  0.1241194450010788  0.6262000527823113 -0.0000000000000000
  0.1241194450010788  0.6262000527823113  0.2500000000000000
  0.1241194450010788  0.6262000527823113  0.5000000000000000
  0.1241194450010788  0.6262000527823113  0.7499999699999975
  0.1247770080534384  0.8757551182465273  0.0000000000000000
  0.1247770080534384  0.8757551182465273  0.2500000000000000
  0.1247770080534384  0.8757551182465273  0.5000000000000000
  0.1247770080534384  0.8757551182465273  0.7499999699999975
  0.3749999850000023  0.1243295902698359 -0.0000000000000000
  0.3749999850000023  0.1243295902698359  0.2500000000000000
  0.3749999850000023  0.1243295902698359  0.5000000000000000
  0.3749999850000023  0.1243295902698359  0.7499999699999975
  0.3749999850000023  0.3698999030437731 -0.0000000000000000
  0.3749999850000023  0.3698999030437731  0.2500000000000000
  0.3749999850000023  0.3698999030437731  0.5000000000000000
  0.3749999850000023  0.3698999030437731  0.7499999699999975
  0.3749999850000023  0.6301000969562268 -0.0000000000000000
  0.3749999850000023  0.6301000969562268  0.2500000000000000
  0.3749999850000023  0.6301000969562268  0.5000000000000000
  0.3749999850000023  0.6301000969562268  0.7499999699999975
  0.3749999850000023  0.8756703947301667 -0.0000000000000000
  0.3749999850000023  0.8756703947301667  0.2500000000000000
  0.3749999850000023  0.8756703947301667  0.5000000000000000
  0.3749999850000023  0.8756703947301667  0.7499999699999975
  0.6252230069465594  0.1242448667534750 -0.0000000000000000
  0.6252230069465594  0.1242448667534750  0.2500000000000000
  0.6252230069465594  0.1242448667534750  0.5000000000000000
  0.6252230069465594  0.1242448667534750  0.7499999699999975
  0.6258805699989189  0.3737999472176883 -0.0000000000000000
  0.6258805699989189  0.3737999472176883  0.2500000000000000
  0.6258805699989189  0.3737999472176883  0.5000000000000000
  0.6258805699989189  0.3737999472176883  0.7499999699999975
  0.6258805699989189  0.6262000527823113 -0.0000000000000000
  0.6258805699989189  0.6262000527823113  0.2500000000000000
  0.6258805699989189  0.6262000527823113  0.5000000000000000
  0.6258805699989189  0.6262000527823113  0.7499999699999975
  0.6252230069465594  0.8757551182465273 -0.0000000000000000
  0.6252230069465594  0.8757551182465273  0.2500000000000000
  0.6252230069465594  0.8757551182465273  0.5000000000000000
  0.6252230069465594  0.8757551182465273  0.7499999699999975
  0.8749999850000023  0.1245930062967122 -0.0000000000000000
  0.8749999850000023  0.1245930062967122  0.2500000000000000
  0.8749999850000023  0.1245930062967122  0.5000000000000000
  0.8749999850000023  0.1245930062967122  0.7499999699999975
  0.8749999850000023  0.3743206255182756  0.0000000000000000
  0.8749999850000023  0.3743206255182756  0.2500000000000000
  0.8749999850000023  0.3743206255182756  0.5000000000000000
  0.8749999850000023  0.3743206255182756  0.7499999699999975
  0.8749999850000023  0.6256793744817246  0.0000000000000000
  0.8749999850000023  0.6256793744817246  0.2500000000000000
  0.8749999850000023  0.6256793744817246  0.5000000000000000
  0.8749999850000023  0.6256793744817246  0.7499999699999975
  0.8749999850000023  0.8754069787032902 -0.0000000000000000
  0.8749999850000023  0.8754069787032902  0.2500000000000000
  0.8749999850000023  0.8754069787032902  0.5000000000000000
  0.8749999850000023  0.8754069787032902  0.7499999699999975
  0.1251641522822654  0.0000000000000000  0.1250000000000000
  0.1251641522822654  0.0000000000000000  0.3749999850000023
  0.1251641522822654  0.0000000000000000  0.6250000149999977
  0.1251641522822654  0.0000000000000000  0.8749999850000023
  0.1232852979211489  0.2496438800722351  0.1250000000000000
  0.1232852979211489  0.2496438800722351  0.3749999850000023
  0.1232852979211489  0.2496438800722351  0.6250000149999977
  0.1232852979211489  0.2496438800722351  0.8749999850000023
  0.1228675223846925  0.5000000000000000  0.1250000000000000
  0.1228675223846925  0.5000000000000000  0.3749999850000023
  0.1228675223846925  0.5000000000000000  0.6250000149999977
  0.1228675223846925  0.5000000000000000  0.8749999850000023
  0.1232852979211489  0.7503560899277623  0.1250000000000000
  0.1232852979211489  0.7503560899277623  0.3749999850000023
  0.1232852979211489  0.7503560899277623  0.6250000149999977
  0.1232852979211489  0.7503560899277623  0.8749999850000023
  0.3749999850000023  0.0000000000000000  0.1250000000000000
  0.3749999850000023  0.0000000000000000  0.3749999850000023
  0.3749999850000023  0.0000000000000000  0.6250000149999977
  0.3749999850000023  0.0000000000000000  0.8749999850000023
  0.3749999850000023  0.2486399275327361  0.1250000000000000
  0.3749999850000023  0.2486399275327361  0.3749999850000023
  0.3749999850000023  0.2486399275327361  0.6250000149999977
  0.3749999850000023  0.2486399275327361  0.8749999850000023
  0.3749999850000023  0.7513600424672614  0.1250000000000000
  0.3749999850000023  0.7513600424672614  0.3749999850000023
  0.3749999850000023  0.7513600424672614  0.6250000149999977
  0.3749999850000023  0.7513600424672614  0.8749999850000023
  0.6248358627177324  0.0000000000000000  0.1250000000000000
  0.6248358627177324  0.0000000000000000  0.3749999850000023
  0.6248358627177324  0.0000000000000000  0.6250000149999977
  0.6248358627177324  0.0000000000000000  0.8749999850000023
  0.6267147170788485  0.2496438800722351  0.1250000000000000
  0.6267147170788485  0.2496438800722351  0.3749999850000023
  0.6267147170788485  0.2496438800722351  0.6250000149999977
  0.6267147170788485  0.2496438800722351  0.8749999850000023
  0.6271324926153052  0.5000000000000000  0.1250000000000000
  0.6271324926153052  0.5000000000000000  0.3749999850000023
  0.6271324926153052  0.5000000000000000  0.6250000149999977
  0.6271324926153052  0.5000000000000000  0.8749999850000023
  0.6267147170788485  0.7503560899277623  0.1250000000000000
  0.6267147170788485  0.7503560899277623  0.3749999850000023
  0.6267147170788485  0.7503560899277623  0.6250000149999977
  0.6267147170788485  0.7503560899277623  0.8749999850000023
  0.8749999850000023  0.0000000000000000  0.1250000000000000
  0.8749999850000023  0.0000000000000000  0.3749999850000023
  0.8749999850000023  0.0000000000000000  0.6250000149999977
  0.8749999850000023  0.0000000000000000  0.8749999850000023
  0.8749999850000023  0.2500379082900317  0.1250000000000000
  0.8749999850000023  0.2500379082900317  0.3749999850000023
  0.8749999850000023  0.2500379082900317  0.6250000149999977
  0.8749999850000023  0.2500379082900317  0.8749999850000023
  0.8749999850000023  0.5000000000000000  0.1250000000000000
  0.8749999850000023  0.5000000000000000  0.3749999850000023
  0.8749999850000023  0.5000000000000000  0.6250000149999977
  0.8749999850000023  0.5000000000000000  0.8749999850000023
  0.8749999850000023  0.7499620617099659  0.1250000000000000
  0.8749999850000023  0.7499620617099659  0.3749999850000023
  0.8749999850000023  0.7499620617099659  0.6250000149999977
  0.8749999850000023  0.7499620617099659  0.8749999850000023
  0.3749999850000023  0.5000000000000000  0.1250000000000000
  0.3749999850000023  0.5000000000000000  0.3749999850000023
  0.3749999850000023  0.5000000000000000  0.6250000149999977
  0.3749999850000023  0.5000000000000000  0.8749999850000023
 
  0.00000000E+00  0.00000000E+00  0.00000000E+00
  0.00000000E+00  0.00000000E+00  0.00000000E+00
  0.00000000E+00  0.00000000E+00  0.00000000E+00
  0.00000000E+00  0.00000000E+00  0.00000000E+00
  0.00000000E+00  0.00000000E+00  0.00000000E+00
  0.00000000E+00  0.00000000E+00  0.00000000E+00
  0.00000000E+00  0.00000000E+00  0.00000000E+00
  0.00000000E+00  0.00000000E+00  0.00000000E+00
  0.00000000E+00  0.00000000E+00  0.00000000E+00
  0.00000000E+00  0.00000000E+00  0.00000000E+00
  0.00000000E+00  0.00000000E+00  0.00000000E+00
  0.00000000E+00  0.00000000E+00  0.00000000E+00
  0.00000000E+00  0.00000000E+00  0.00000000E+00
  0.00000000E+00  0.00000000E+00  0.00000000E+00
  0.00000000E+00  0.00000000E+00  0.00000000E+00
  0.00000000E+00  0.00000000E+00  0.00000000E+00
  0.00000000E+00  0.00000000E+00  0.00000000E+00
  0.00000000E+00  0.00000000E+00  0.00000000E+00
  0.00000000E+00  0.00000000E+00  0.00000000E+00
  0.00000000E+00  0.00000000E+00  0.00000000E+00
  0.00000000E+00  0.00000000E+00  0.00000000E+00
  0.00000000E+00  0.00000000E+00  0.00000000E+00
  0.00000000E+00  0.00000000E+00  0.00000000E+00
  0.00000000E+00  0.00000000E+00  0.00000000E+00
  0.00000000E+00  0.00000000E+00  0.00000000E+00
  0.00000000E+00  0.00000000E+00  0.00000000E+00
  0.00000000E+00  0.00000000E+00  0.00000000E+00
  0.00000000E+00  0.00000000E+00  0.00000000E+00
  0.00000000E+00  0.00000000E+00  0.00000000E+00
  0.00000000E+00  0.00000000E+00  0.00000000E+00
  0.00000000E+00  0.00000000E+00  0.00000000E+00
  0.00000000E+00  0.00000000E+00  0.00000000E+00
  0.00000000E+00  0.00000000E+00  0.00000000E+00
  0.00000000E+00  0.00000000E+00  0.00000000E+00
  0.00000000E+00  0.00000000E+00  0.00000000E+00
  0.00000000E+00  0.00000000E+00  0.00000000E+00
  0.00000000E+00  0.00000000E+00  0.00000000E+00
  0.00000000E+00  0.00000000E+00  0.00000000E+00
  0.00000000E+00  0.00000000E+00  0.00000000E+00
  0.00000000E+00  0.00000000E+00  0.00000000E+00
  0.00000000E+00  0.00000000E+00  0.00000000E+00
  0.00000000E+00  0.00000000E+00  0.00000000E+00
  0.00000000E+00  0.00000000E+00  0.00000000E+00
  0.00000000E+00  0.00000000E+00  0.00000000E+00
  0.00000000E+00  0.00000000E+00  0.00000000E+00
  0.00000000E+00  0.00000000E+00  0.00000000E+00
  0.00000000E+00  0.00000000E+00  0.00000000E+00
  0.00000000E+00  0.00000000E+00  0.00000000E+00
  0.00000000E+00  0.00000000E+00  0.00000000E+00
  0.00000000E+00  0.00000000E+00  0.00000000E+00
  0.00000000E+00  0.00000000E+00  0.00000000E+00
  0.00000000E+00  0.00000000E+00  0.00000000E+00
  0.00000000E+00  0.00000000E+00  0.00000000E+00
  0.00000000E+00  0.00000000E+00  0.00000000E+00
  0.00000000E+00  0.00000000E+00  0.00000000E+00
  0.00000000E+00  0.00000000E+00  0.00000000E+00
  0.00000000E+00  0.00000000E+00  0.00000000E+00
  0.00000000E+00  0.00000000E+00  0.00000000E+00
  0.00000000E+00  0.00000000E+00  0.00000000E+00
  0.00000000E+00  0.00000000E+00  0.00000000E+00
  0.00000000E+00  0.00000000E+00  0.00000000E+00
  0.00000000E+00  0.00000000E+00  0.00000000E+00
  0.00000000E+00  0.00000000E+00  0.00000000E+00
  0.00000000E+00  0.00000000E+00  0.00000000E+00
  0.00000000E+00  0.00000000E+00  0.00000000E+00
  0.00000000E+00  0.00000000E+00  0.00000000E+00
  0.00000000E+00  0.00000000E+00  0.00000000E+00
  0.00000000E+00  0.00000000E+00  0.00000000E+00
  0.00000000E+00  0.00000000E+00  0.00000000E+00
  0.00000000E+00  0.00000000E+00  0.00000000E+00
  0.00000000E+00  0.00000000E+00  0.00000000E+00
  0.00000000E+00  0.00000000E+00  0.00000000E+00
  0.00000000E+00  0.00000000E+00  0.00000000E+00
  0.00000000E+00  0.00000000E+00  0.00000000E+00
  0.00000000E+00  0.00000000E+00  0.00000000E+00
  0.00000000E+00  0.00000000E+00  0.00000000E+00
  0.00000000E+00  0.00000000E+00  0.00000000E+00
  0.00000000E+00  0.00000000E+00  0.00000000E+00
  0.00000000E+00  0.00000000E+00  0.00000000E+00
  0.00000000E+00  0.00000000E+00  0.00000000E+00
  0.00000000E+00  0.00000000E+00  0.00000000E+00
  0.00000000E+00  0.00000000E+00  0.00000000E+00
  0.00000000E+00  0.00000000E+00  0.00000000E+00
  0.00000000E+00  0.00000000E+00  0.00000000E+00
  0.00000000E+00  0.00000000E+00  0.00000000E+00
  0.00000000E+00  0.00000000E+00  0.00000000E+00
  0.00000000E+00  0.00000000E+00  0.00000000E+00
  0.00000000E+00  0.00000000E+00  0.00000000E+00
  0.00000000E+00  0.00000000E+00  0.00000000E+00
  0.00000000E+00  0.00000000E+00  0.00000000E+00
  0.00000000E+00  0.00000000E+00  0.00000000E+00
  0.00000000E+00  0.00000000E+00  0.00000000E+00
  0.00000000E+00  0.00000000E+00  0.00000000E+00
  0.00000000E+00  0.00000000E+00  0.00000000E+00
  0.00000000E+00  0.00000000E+00  0.00000000E+00
  0.00000000E+00  0.00000000E+00  0.00000000E+00
  0.00000000E+00  0.00000000E+00  0.00000000E+00
  0.00000000E+00  0.00000000E+00  0.00000000E+00
  0.00000000E+00  0.00000000E+00  0.00000000E+00
  0.00000000E+00  0.00000000E+00  0.00000000E+00
  0.00000000E+00  0.00000000E+00  0.00000000E+00
  0.00000000E+00  0.00000000E+00  0.00000000E+00
  0.00000000E+00  0.00000000E+00  0.00000000E+00
  0.00000000E+00  0.00000000E+00  0.00000000E+00
  0.00000000E+00  0.00000000E+00  0.00000000E+00
  0.00000000E+00  0.00000000E+00  0.00000000E+00
  0.00000000E+00  0.00000000E+00  0.00000000E+00
  0.00000000E+00  0.00000000E+00  0.00000000E+00
  0.00000000E+00  0.00000000E+00  0.00000000E+00
  0.00000000E+00  0.00000000E+00  0.00000000E+00
  0.00000000E+00  0.00000000E+00  0.00000000E+00
  0.00000000E+00  0.00000000E+00  0.00000000E+00
  0.00000000E+00  0.00000000E+00  0.00000000E+00
  0.00000000E+00  0.00000000E+00  0.00000000E+00
  0.00000000E+00  0.00000000E+00  0.00000000E+00
  0.00000000E+00  0.00000000E+00  0.00000000E+00
  0.00000000E+00  0.00000000E+00  0.00000000E+00
  0.00000000E+00  0.00000000E+00  0.00000000E+00
  0.00000000E+00  0.00000000E+00  0.00000000E+00
  0.00000000E+00  0.00000000E+00  0.00000000E+00
  0.00000000E+00  0.00000000E+00  0.00000000E+00
  0.00000000E+00  0.00000000E+00  0.00000000E+00
  0.00000000E+00  0.00000000E+00  0.00000000E+00
  0.00000000E+00  0.00000000E+00  0.00000000E+00
  0.00000000E+00  0.00000000E+00  0.00000000E+00
  0.00000000E+00  0.00000000E+00  0.00000000E+00
  0.00000000E+00  0.00000000E+00  0.00000000E+00
  0.00000000E+00  0.00000000E+00  0.00000000E+00
  0.00000000E+00  0.00000000E+00  0.00000000E+00
  0.00000000E+00  0.00000000E+00  0.00000000E+00
  0.00000000E+00  0.00000000E+00  0.00000000E+00
  0.00000000E+00  0.00000000E+00  0.00000000E+00
  0.00000000E+00  0.00000000E+00  0.00000000E+00
  0.00000000E+00  0.00000000E+00  0.00000000E+00
  0.00000000E+00  0.00000000E+00  0.00000000E+00
  0.00000000E+00  0.00000000E+00  0.00000000E+00
  0.00000000E+00  0.00000000E+00  0.00000000E+00
  0.00000000E+00  0.00000000E+00  0.00000000E+00
  0.00000000E+00  0.00000000E+00  0.00000000E+00
  0.00000000E+00  0.00000000E+00  0.00000000E+00
  0.00000000E+00  0.00000000E+00  0.00000000E+00
  0.00000000E+00  0.00000000E+00  0.00000000E+00
  0.00000000E+00  0.00000000E+00  0.00000000E+00
  0.00000000E+00  0.00000000E+00  0.00000000E+00
  0.00000000E+00  0.00000000E+00  0.00000000E+00
  0.00000000E+00  0.00000000E+00  0.00000000E+00
  0.00000000E+00  0.00000000E+00  0.00000000E+00
  0.00000000E+00  0.00000000E+00  0.00000000E+00
  0.00000000E+00  0.00000000E+00  0.00000000E+00
  0.00000000E+00  0.00000000E+00  0.00000000E+00
  0.00000000E+00  0.00000000E+00  0.00000000E+00
  0.00000000E+00  0.00000000E+00  0.00000000E+00
  0.00000000E+00  0.00000000E+00  0.00000000E+00
  0.00000000E+00  0.00000000E+00  0.00000000E+00
  0.00000000E+00  0.00000000E+00  0.00000000E+00
  0.00000000E+00  0.00000000E+00  0.00000000E+00
  0.00000000E+00  0.00000000E+00  0.00000000E+00
  0.00000000E+00  0.00000000E+00  0.00000000E+00
  0.00000000E+00  0.00000000E+00  0.00000000E+00
  0.00000000E+00  0.00000000E+00  0.00000000E+00
  0.00000000E+00  0.00000000E+00  0.00000000E+00
  0.00000000E+00  0.00000000E+00  0.00000000E+00
  0.00000000E+00  0.00000000E+00  0.00000000E+00
  0.00000000E+00  0.00000000E+00  0.00000000E+00
  0.00000000E+00  0.00000000E+00  0.00000000E+00
  0.00000000E+00  0.00000000E+00  0.00000000E+00
  0.00000000E+00  0.00000000E+00  0.00000000E+00
  0.00000000E+00  0.00000000E+00  0.00000000E+00
  0.00000000E+00  0.00000000E+00  0.00000000E+00
  0.00000000E+00  0.00000000E+00  0.00000000E+00
  0.00000000E+00  0.00000000E+00  0.00000000E+00
  0.00000000E+00  0.00000000E+00  0.00000000E+00
  0.00000000E+00  0.00000000E+00  0.00000000E+00
  0.00000000E+00  0.00000000E+00  0.00000000E+00
  0.00000000E+00  0.00000000E+00  0.00000000E+00
  0.00000000E+00  0.00000000E+00  0.00000000E+00
  0.00000000E+00  0.00000000E+00  0.00000000E+00
  0.00000000E+00  0.00000000E+00  0.00000000E+00
  0.00000000E+00  0.00000000E+00  0.00000000E+00
  0.00000000E+00  0.00000000E+00  0.00000000E+00
  0.00000000E+00  0.00000000E+00  0.00000000E+00
  0.00000000E+00  0.00000000E+00  0.00000000E+00
  0.00000000E+00  0.00000000E+00  0.00000000E+00
  0.00000000E+00  0.00000000E+00  0.00000000E+00
  0.00000000E+00  0.00000000E+00  0.00000000E+00
  0.00000000E+00  0.00000000E+00  0.00000000E+00
  0.00000000E+00  0.00000000E+00  0.00000000E+00
  0.00000000E+00  0.00000000E+00  0.00000000E+00
  0.00000000E+00  0.00000000E+00  0.00000000E+00
  0.00000000E+00  0.00000000E+00  0.00000000E+00
  0.00000000E+00  0.00000000E+00  0.00000000E+00
  0.00000000E+00  0.00000000E+00  0.00000000E+00
  0.00000000E+00  0.00000000E+00  0.00000000E+00
  0.00000000E+00  0.00000000E+00  0.00000000E+00
  0.00000000E+00  0.00000000E+00  0.00000000E+00
  0.00000000E+00  0.00000000E+00  0.00000000E+00
  0.00000000E+00  0.00000000E+00  0.00000000E+00
  0.00000000E+00  0.00000000E+00  0.00000000E+00
  0.00000000E+00  0.00000000E+00  0.00000000E+00
  0.00000000E+00  0.00000000E+00  0.00000000E+00
  0.00000000E+00  0.00000000E+00  0.00000000E+00
  0.00000000E+00  0.00000000E+00  0.00000000E+00
  0.00000000E+00  0.00000000E+00  0.00000000E+00
  0.00000000E+00  0.00000000E+00  0.00000000E+00
  0.00000000E+00  0.00000000E+00  0.00000000E+00
  0.00000000E+00  0.00000000E+00  0.00000000E+00
  0.00000000E+00  0.00000000E+00  0.00000000E+00