La1 Mn1 O3                              
   1.00000000000000     
    15.7880911674104585    0.0000000000000000    0.0000000000000000
     0.0000000000000000   15.6961629938973104    0.0000000000000000
     0.0000000000000000    0.0000000000000000   15.8800830347442599
   La   Mn   O    N 
    64    64   187     5
Direct
 -0.0050870134883901  0.0000000000000000  0.0005081407536768
  0.0045241713753430  0.0000000000000000  0.2500047604812289
  0.0045241713753430  0.0000000000000000  0.4999952395187710
 -0.0050870134883901  0.0000000000000000  0.7494918292463206
 -0.0004781425925171  0.2500965841330799  0.0001420693367308
  0.0009224396421908  0.2499682263776165  0.2499940881963403
  0.0009224396421908  0.2499682263776165  0.5000059118036597
 -0.0004781425925170  0.2500965841330799  0.7498579006632669
 -0.0029382701370781  0.5000000000000000 -0.0002788771043321
  0.0042612927551402  0.5000000000000000  0.2505002214690092
  0.0042612927551402  0.5000000000000000  0.4994997785309913
 -0.0029382701370781  0.5000000000000000  0.7502788471043293
 -0.0004781425925170  0.7499033858669172  0.0001420693367308
  0.0009224396421908  0.7500317436223811  0.2499940881963403
  0.0009224396421908  0.7500317436223811  0.5000059118036597
 -0.0004781425925171  0.7499033858669172  0.7498579006632669
  0.2473139455146308  0.0000000000000000  0.0006147853112142
  0.2510289045906047  0.0000000000000000  0.2495693772426273
  0.2510289045906047  0.0000000000000000  0.5004306227573724
  0.2473139455146308  0.0000000000000000  0.7493851846887836
  0.2495798874806706  0.2512206766533766  0.0002401203624288
  0.2534973258429902  0.2511676784854422  0.2496662236158009
  0.2534973258429902  0.2511676784854422  0.5003337763841991
  0.2495798874806706  0.2512206766533766  0.7497598496375677
  0.2503407848335318  0.5000000000000000 -0.0010021268123961
  0.2535315793050433  0.5000000000000000  0.2505933892407902
  0.2535315793050433  0.5000000000000000  0.4994066107592097
  0.2503407848335318  0.5000000000000000  0.7510020968123932
  0.2495798874806706  0.7487792933466209  0.0002401203624288
  0.2534973258429902  0.7488322915145558  0.2496662236158009
  0.2534973258429902  0.7488322915145558  0.5003337763841991
  0.2495798874806706  0.7487792933466209  0.7497598496375677
  0.4939401212826295  0.0000000000000000 -0.0000266769534914
  0.5042345927684637  0.0000000000000000  0.2501458395555028
  0.5042345927684637  0.0000000000000000  0.4998541604444970
  0.4939401212826295  0.0000000000000000  0.7500266469534895
  0.4988852710023973  0.2518109678915006 -0.0006331165665890
  0.4992000988411308  0.2512006023261688  0.2499547195392187
  0.4992000988411308  0.2512006023261688  0.5000452804607811
  0.4988852710023973  0.2518109678915006  0.7506330865665863
  0.4978333285835547  0.5000000000000000 -0.0008506117479263
  0.5028938447468333  0.5000000000000000  0.2491568020935245
  0.5028938447468333  0.5000000000000000  0.5008431979064757
  0.4978333285835547  0.5000000000000000  0.7508505817479236
  0.4988852710023973  0.7481890021084964 -0.0006331165665890
  0.4992000988411308  0.7487993676738289  0.2499547195392187
  0.4992000988411308  0.7487993676738289  0.5000452804607811
  0.4988852710023973  0.7481890021084964  0.7506330865665863
  0.7466950871827880  0.0000000000000000  0.0003323627269033
  0.7502725087743027  0.0000000000000000  0.2500182218739601
  0.7502725087743027  0.0000000000000000  0.4999817781260398
  0.7466950871827880  0.0000000000000000  0.7496676072730943
  0.7462922473096395  0.2502889348126400 -0.0001168034121202
  0.7527580189462887  0.2503392560281343  0.2499570260052884
  0.7527580189462887  0.2503392560281343  0.5000429739947113
  0.7462922473096395  0.2502889348126400  0.7501167734121174
  0.7487691003505640  0.5000000000000000 -0.0013627920118858
  0.7515886451923213  0.5000000000000000  0.2496130142144495
  0.7515886451923213  0.5000000000000000  0.5003869857855502
  0.7487691003505640  0.5000000000000000  0.7513627620118839
  0.7462922473096395  0.7497110351873577 -0.0001168034121202
  0.7527580189462887  0.7496607139718632  0.2499570260052884
  0.7527580189462887  0.7496607139718632  0.5000429739947113
  0.7462922473096395  0.7497110351873577  0.7501167734121174
  0.1248460485164756  0.1253519009040832  0.1245762195418686
  0.1260213064534944  0.1248244867322856  0.3749999850000023
  0.1248460485164756  0.1253519009040832  0.6254237954581291
  0.1240010638545594  0.1255201195027167  0.8749999850000023
  0.1253323205223582  0.3752490176826719  0.1249129238927089
  0.1260591379570488  0.3755507126932052  0.3749999850000023
  0.1253323205223582  0.3752490176826719  0.6250870911072889
  0.1241825780802471  0.3743895412104253  0.8749999850000023
  0.1253323205223582  0.6247509823173287  0.1249129238927089
  0.1260591379570488  0.6244492873067957  0.3749999850000023
  0.1253323205223582  0.6247509823173287  0.6250870911072889
  0.1241825780802471  0.6256104587895749  0.8749999850000023
  0.1248460485164756  0.8746480840959190  0.1245762195418686
  0.1260213064534944  0.8751754982677167  0.3749999850000023
  0.1248460485164756  0.8746480840959190  0.6254237954581291
  0.1240010638545594  0.8744798654972856  0.8749999850000023
  0.3748892979262894  0.1253402651472101  0.1256958209463711
  0.3756700083834110  0.1257920556716933  0.3749999850000023
  0.3748892979262894  0.1253402651472101  0.6243041940536268
  0.3734674084019315  0.1247162486529952  0.8749999850000023
  0.3748852703863748  0.3786696281669708  0.1249259451436164
  0.3764941395207457  0.3780107724080961  0.3749999850000023
  0.3748852703863748  0.3786696281669708  0.6250740698563816
  0.3747198001232044  0.3785783030204166  0.8749999850000023
  0.3748852703863748  0.6213303718330290  0.1249259451436164
  0.3764941395207457  0.6219892275919034  0.3749999850000023
  0.3748852703863748  0.6213303718330290  0.6250740698563816
  0.3747198001232044  0.6214216969795816  0.8749999850000023
  0.3748892979262894  0.8746597198527924  0.1256958209463711
  0.3756700083834110  0.8742079293283089  0.3749999850000023
  0.3748892979262894  0.8746597198527924  0.6243041940536268
  0.3734674084019315  0.8752837363470071  0.8749999850000023
  0.6243156810199822  0.1251489942793423  0.1247762047522831
  0.6254806465227409  0.1247814224589648  0.3749999850000023
  0.6243156810199822  0.1251489942793423  0.6252238102477148
  0.6235049294400975  0.1260752696452835  0.8749999850000023
  0.6256498397884326  0.3750179926857646  0.1250703464215852
  0.6259109904049863  0.3758420723452258  0.3749999850000023
  0.6256498397884326  0.3750179926857646  0.6249296685784120
  0.6243923484117955  0.3776045787468597  0.8749999850000023
  0.6256498397884326  0.6249820073142356  0.1250703464215852
  0.6259109904049863  0.6241579276547734  0.3749999850000023
  0.6256498397884326  0.6249820073142356  0.6249296685784120
  0.6243923484117955  0.6223954212531411  0.8749999850000023
  0.6243156810199822  0.8748509907206601  0.1247762047522831
  0.6254806465227409  0.8752185625410375  0.3749999850000023
  0.6243156810199822  0.8748509907206601  0.6252238102477148
  0.6235049294400975  0.8739247153547189  0.8749999850000023
  0.8744937811855088  0.1249035443769099  0.1254838379146761
  0.8758954026091094  0.1255113556143793  0.3749999850000023
  0.8744937811855088  0.1249035443769099  0.6245161770853220
  0.8737633012123235  0.1240353698746532  0.8749999850000023
  0.8754083902833734  0.3749707570612837  0.1250032545495353
  0.8757720040738761  0.3742659602748766  0.3749999850000023
  0.8754083902833734  0.3749707570612837  0.6249967604504627
  0.8745424809197857  0.3752147975873735  0.8749999850000023
  0.8754083902833734  0.6250292429387152  0.1250032545495353
  0.8757720040738761  0.6257340397251241  0.3749999850000023
  0.8754083902833734  0.6250292429387152  0.6249967604504627
  0.8745424809197857  0.6247852024126263  0.8749999850000023
  0.8744937811855088  0.8750964406230927  0.1254838379146761
  0.8758954026091094  0.8744886293856237  0.3749999850000023
  0.8744937811855088  0.8750964406230927  0.6245161770853220
  0.8737633012123235  0.8759646151253495  0.8749999850000023
  0.0022204317689584  0.1544329229800993  0.1247295605760581
  0.0044287894799853  0.0962728604314214  0.3749999850000023
  0.0022204317689584  0.1544329229800993  0.6252704544239394
 -0.0045118685615495  0.0957483766190851  0.8749999850000023
 -0.0024965684797467  0.3459455767976498  0.1253326679186655
  0.0009360305632329  0.4032311293111930  0.3749999850000023
 -0.0024965684797467  0.3459455767976498  0.6246673470813323
 -0.0027192171050536  0.4031558124101376  0.8749999850000023
 -0.0024965684797467  0.6540544232023504  0.1253326679186655
  0.0009360305632329  0.5967688706888072  0.3749999850000023
 -0.0024965684797467  0.6540544232023504  0.6246673470813323
 -0.0027192171050536  0.5968441875898617  0.8749999850000023
  0.0022204317689584  0.8455670620199032  0.1247295605760581
  0.0044287894799853  0.9037271245685814  0.3749999850000023
  0.0022204317689584  0.8455670620199032  0.6252704544239394
 -0.0045118685615495  0.9042516083809169  0.8749999850000023
  0.2473745817282964  0.0958435282777486  0.1256799290534377
  0.2468505044979500  0.1536703316471859  0.3749999850000023
  0.2473745817282964  0.0958435282777486  0.6243200859465601
  0.2528442306293224  0.1540082980728711  0.8749999850000023
  0.2523855105923686  0.4027381662423817  0.1245182344480926
  0.2503222340545777  0.3472984561298756  0.3749999850000023
  0.2523855105923686  0.4027381662423817  0.6254817805519048
  0.2512729863126671  0.3468511129315366  0.8749999850000023
  0.2523855105923686  0.5972618337576187  0.1245182344480926
  0.2503222340545777  0.6527015438701248  0.3749999850000023
  0.2523855105923686  0.5972618337576187  0.6254817805519048
  0.2512729863126671  0.6531488870684635  0.8749999850000023
  0.2473745817282964  0.9041564567222538  0.1256799290534377
  0.2468505044979500  0.8463296533528164  0.3749999850000023
  0.2473745817282964  0.9041564567222538  0.6243200859465601
  0.2528442306293224  0.8459916869271313  0.8749999850000023
  0.5021232117419999  0.1543221037244271  0.1248135708153485
  0.5041776826627703  0.0963284055964970  0.3749999850000023
  0.5021232117419999  0.1543221037244271  0.6251864441846496
  0.4949976177482016  0.0962434360200276  0.8749999850000023
  0.4975225988513237  0.3470875274516076  0.1256188322093804
  0.5015382812666372  0.4019903657274365  0.3749999850000023
  0.4975225988513237  0.3470875274516076  0.6243811827906173
  0.4984074206919789  0.4010707539571362  0.8749999850000023
  0.4975225988513237  0.6529124725483926  0.1256188322093804
  0.5015382812666372  0.5980096342725634  0.3749999850000023
  0.4975225988513237  0.6529124725483925  0.6243811827906173
  0.4984074206919789  0.5989292460428641  0.8749999850000023
  0.5021232117419999  0.8456778812755756  0.1248135708153485
  0.5041776826627703  0.9036715794035055  0.3749999850000023
  0.5021232117419999  0.8456778812755756  0.6251864441846496
  0.4949976177482016  0.9037565489799745  0.8749999850000023
  0.7469798296501698  0.0957210221988653  0.1253357574371228
  0.7464766800839834  0.1537125341333446  0.3749999850000023
  0.7469798296501698  0.0957210221988653  0.6246642575628750
  0.7528079888154049  0.1536098215509860  0.8749999850000023
  0.7537026007934746  0.4030074782171302  0.1251279244289772
  0.7499946113143093  0.3461832687054623  0.3749999850000023
  0.7537026007934746  0.4030074782171302  0.6248720905710210
  0.7519363189564970  0.3464378535857475  0.8749999850000023
  0.7537026007934746  0.5969925217828702  0.1251279244289772
  0.7499946113143093  0.6538167312945375  0.3749999850000023
  0.7537026007934746  0.5969925217828702  0.6248720905710210
  0.7519363189564970  0.6535621464142524  0.8749999850000023
  0.7469798296501698  0.9042789628011373  0.1253357574371228
  0.7464766800839834  0.8462874508666578  0.3749999850000023
  0.7469798296501698  0.9042789628011373  0.6246642575628750
  0.7528079888154049  0.8463901634490162  0.8749999850000023
  0.1261499121630121  0.1293182644412997  0.0004836582967254
  0.1235572653746811  0.1200942857608451  0.2481669285268069
  0.1235572653746811  0.1200942857608451  0.5018330714731937
  0.1261499121630121  0.1293182644412997  0.7495163117032720
  0.1248214441644434  0.3708724358094542 -0.0004574250816172
  0.1240289136958279  0.3781430629270570  0.2501338480759248
  0.1240289136958279  0.3781430629270570  0.4998661519240754
  0.1248214441644434  0.3708724358094542  0.7504573950816145
  0.1248214441644434  0.6291275641905458 -0.0004574250816172
  0.1240289136958279  0.6218569370729432  0.2501338480759248
  0.1240289136958279  0.6218569370729432  0.4998661519240754
  0.1248214441644434  0.6291275641905458  0.7504573950816145
  0.1261499121630121  0.8706817205587023  0.0004836582967254
  0.1235572653746811  0.8799056992391574  0.2481669285268069
  0.1235572653746811  0.8799056992391574  0.5018330714731937
  0.1261499121630121  0.8706817205587023  0.7495163117032720
  0.3747563669628792  0.1195146665360140  0.0028677595496277
  0.3739359609084025  0.1302366706764122  0.2491978410354355
  0.3739359609084025  0.1302366706764122  0.5008021589645645
  0.3747563669628792  0.1195146665360140  0.7471322104503703
  0.3759662751407309  0.3743228151740839  0.0002448807856256
  0.3740396606406126  0.3679755074548757  0.2495111035392216
  0.3740396606406126  0.3679755074548757  0.5004888964607785
  0.3759662751407309  0.3743228151740839  0.7497550892143720
  0.3759662751407309  0.6256771848259169  0.0002448807856256
  0.3740396606406126  0.6320244925451245  0.2495111035392216
  0.3740396606406126  0.6320244925451245  0.5004888964607785
  0.3759662751407309  0.6256771848259169  0.7497550892143720
  0.3747563669628792  0.8804853184639879  0.0028677595496277
  0.3739359609084025  0.8697633143235898  0.2491978410354355
  0.3739359609084025  0.8697633143235898  0.5008021589645645
  0.3747563669628792  0.8804853184639879  0.7471322104503703
  0.6267337797810314  0.1304217631392636  0.0003673518618756
  0.6238644444795679  0.1185500968770777  0.2486888522812331
  0.6238644444795679  0.1185500968770777  0.5013111477187665
  0.6267337797810314  0.1304217631392636  0.7496326181381223
  0.6260298593917542  0.3671457398532855  0.0013498076883011
  0.6253866405792100  0.3803844165317768  0.2487896165680994
  0.6253866405792100  0.3803844165317768  0.5012103834319005
  0.6260298593917542  0.3671457398532855  0.7486501623116965
  0.6260298593917542  0.6328542601467149  0.0013498076883011
  0.6253866405792100  0.6196155834682229  0.2487896165680994
  0.6253866405792100  0.6196155834682229  0.5012103834319005
  0.6260298593917542  0.6328542601467149  0.7486501623116965
  0.6267337797810314  0.8695782218607390  0.0003673518618756
  0.6238644444795679  0.8814498881229249  0.2486888522812331
  0.6238644444795679  0.8814498881229249  0.5013111477187665
  0.6267337797810314  0.8695782218607390  0.7496326181381223
  0.8755833518881460  0.1184394785160990  0.0025923184826125
  0.8737066704698178  0.1310633507880984  0.2490974267319555
  0.8737066704698178  0.1310633507880984  0.5009025732680443
  0.8755833518881460  0.1184394785160990  0.7474076515173844
  0.8769559735943403  0.3791722774949295  0.0000600334860630
  0.8742729698356093  0.3700295091682178  0.2503076311878643
  0.8742729698356093  0.3700295091682178  0.4996923688121358
  0.8769559735943403  0.3791722774949295  0.7499399365139344
  0.8769559735943403  0.6208277225050708  0.0000600334860630
  0.8742729698356093  0.6299704908317820  0.2503076311878643
  0.8742729698356093  0.6299704908317820  0.4996923688121358
  0.8769559735943403  0.6208277225050708  0.7499399365139344
  0.8755833518881460  0.8815605064839036  0.0025923184826125
  0.8737066704698178  0.8689366342119041  0.2490974267319555
  0.8737066704698178  0.8689366342119041  0.5009025732680443
  0.8755833518881460  0.8815605064839036  0.7474076515173844
  0.0955238466188748  0.0000000000000000  0.1196596187959673
  0.1568935018206460  0.0000000000000000  0.3749999850000023
  0.0955238466188748  0.0000000000000000  0.6303403962040300
  0.1508935519858014  0.0000000000000000  0.8749999850000023
  0.1542253911617110  0.2510120313767245  0.1289409122471396
  0.0967263205706112  0.2499572777985185  0.3749999850000023
  0.1542253911617110  0.2510120313767245  0.6210591027528582
  0.0950085419502787  0.2495082042647510  0.8749999850000023
  0.0963474661913872  0.5000000000000000  0.1211135967167898
  0.1532630352922469  0.5000000000000000  0.3749999850000023
  0.0963474661913872  0.5000000000000000  0.6288864182832079
  0.1504314044751146  0.5000000000000000  0.8749999850000023
  0.1542253911617110  0.7489879386232724  0.1289409122471396
  0.0967263205706112  0.7500426922014795  0.3749999850000023
  0.1542253911617110  0.7489879386232724  0.6210591027528582
  0.0950085419502787  0.7504917657352460  0.8749999850000023
  0.4029185066407695  0.0000000000000000  0.1312615281345984
  0.3499523496990395  0.0000000000000000  0.3749999850000023
  0.4029185066407695  0.0000000000000000  0.6187384868654001
  0.3430530110445754  0.0000000000000000  0.8749999850000023
  0.3462452132742140  0.2504300292704484  0.1213277495997689
  0.4040048186653812  0.2502809455364309  0.3749999850000023
  0.3462452132742140  0.2504300292704484  0.6286722654002285
  0.4028018663762093  0.2496392046736622  0.8749999850000023
  0.3462452132742140  0.7495699407295490  0.1213277495997689
  0.4040048186653812  0.7497190244635664  0.3749999850000023
  0.3462452132742140  0.7495699407295490  0.6286722654002285
  0.4028018663762093  0.7503607653263353  0.8749999850000023
  0.5947090657947885  0.0000000000000000  0.1184297204839411
  0.6563182354772901  0.0000000000000000  0.3749999850000023
  0.5947090657947885  0.0000000000000000  0.6315702945160566
  0.6493440105963734  0.0000000000000000  0.8749999850000023
  0.6539850999210768  0.2505137586471247  0.1310830429446554
  0.5963445982143961  0.2506715900664735  0.3749999850000023
  0.6539850999210768  0.2505137586471247  0.6189169720553424
  0.5957066493276081  0.2502280176440081  0.8749999850000023
  0.5995422330641846  0.5000000000000000  0.1183543931603796
  0.6562105343816028  0.5000000000000000  0.3749999850000023
  0.5995422330641846  0.5000000000000000  0.6316456218396179
  0.6539850999210768  0.7494862113528726  0.1310830429446554
  0.5963445982143961  0.7493283799335237  0.3749999850000023
  0.6539850999210768  0.7494862113528726  0.6189169720553424
  0.5957066493276080  0.7497719523559893  0.8749999850000023
  0.9038659117889313  0.0000000000000000  0.1322029290817323
  0.8489444131405953  0.0000000000000000  0.3749999850000023
  0.9038659117889313  0.0000000000000000  0.6177970859182654
  0.8417854530748070  0.0000000000000000  0.8749999850000023
  0.8458771859960917  0.2497324164422350  0.1197098114521839
  0.9047435014349302  0.2493999919646689  0.3749999850000023
  0.8458771859960917  0.2497324164422350  0.6302902035478132
  0.9035718688564137  0.2487679180336159  0.8749999850000023
  0.9051632900612296  0.5000000000000000  0.1304777659846874
  0.8480039366466917  0.5000000000000000  0.3749999850000023
  0.9051632900612296  0.5000000000000000  0.6195222490153106
  0.8462044854850918  0.5000000000000000  0.8749999850000023
  0.8458771859960917  0.7502675535577619  0.1197098114521839
  0.9047435014349302  0.7505999780353284  0.3749999850000023
  0.8458771859960917  0.7502675535577619  0.6302902035478132
  0.9035718688564137  0.7512320519663814  0.8749999850000023
  0.4045760398972569  0.5000000000000000  0.1288499360510267
  0.3489566478740684  0.5000000000000000  0.3749999850000023
  0.4045760398972569  0.5000000000000000  0.6211500789489710
  0.3458044013938074  0.5000000000000000  0.8749999850000023
  0.6514999651982986  0.5000000000000000  0.8749999850000023
 
  0.00000000E+00  0.00000000E+00  0.00000000E+00
  0.00000000E+00  0.00000000E+00  0.00000000E+00
  0.00000000E+00  0.00000000E+00  0.00000000E+00
  0.00000000E+00  0.00000000E+00  0.00000000E+00
  0.00000000E+00  0.00000000E+00  0.00000000E+00
  0.00000000E+00  0.00000000E+00  0.00000000E+00
  0.00000000E+00  0.00000000E+00  0.00000000E+00
  0.00000000E+00  0.00000000E+00  0.00000000E+00
  0.00000000E+00  0.00000000E+00  0.00000000E+00
  0.00000000E+00  0.00000000E+00  0.00000000E+00
  0.00000000E+00  0.00000000E+00  0.00000000E+00
  0.00000000E+00  0.00000000E+00  0.00000000E+00
  0.00000000E+00  0.00000000E+00  0.00000000E+00
  0.00000000E+00  0.00000000E+00  0.00000000E+00
  0.00000000E+00  0.00000000E+00  0.00000000E+00
  0.00000000E+00  0.00000000E+00  0.00000000E+00
  0.00000000E+00  0.00000000E+00  0.00000000E+00
  0.00000000E+00  0.00000000E+00  0.00000000E+00
  0.00000000E+00  0.00000000E+00  0.00000000E+00
  0.00000000E+00  0.00000000E+00  0.00000000E+00
  0.00000000E+00  0.00000000E+00  0.00000000E+00
  0.00000000E+00  0.00000000E+00  0.00000000E+00
  0.00000000E+00  0.00000000E+00  0.00000000E+00
  0.00000000E+00  0.00000000E+00  0.00000000E+00
  0.00000000E+00  0.00000000E+00  0.00000000E+00
  0.00000000E+00  0.00000000E+00  0.00000000E+00
  0.00000000E+00  0.00000000E+00  0.00000000E+00
  0.00000000E+00  0.00000000E+00  0.00000000E+00
  0.00000000E+00  0.00000000E+00  0.00000000E+00
  0.00000000E+00  0.00000000E+00  0.00000000E+00
  0.00000000E+00  0.00000000E+00  0.00000000E+00
  0.00000000E+00  0.00000000E+00  0.00000000E+00
  0.00000000E+00  0.00000000E+00  0.00000000E+00
  0.00000000E+00  0.00000000E+00  0.00000000E+00
  0.00000000E+00  0.00000000E+00  0.00000000E+00
  0.00000000E+00  0.00000000E+00  0.00000000E+00
  0.00000000E+00  0.00000000E+00  0.00000000E+00
  0.00000000E+00  0.00000000E+00  0.00000000E+00
  0.00000000E+00  0.00000000E+00  0.00000000E+00
  0.00000000E+00  0.00000000E+00  0.00000000E+00
  0.00000000E+00  0.00000000E+00  0.00000000E+00
  0.00000000E+00  0.00000000E+00  0.00000000E+00
  0.00000000E+00  0.00000000E+00  0.00000000E+00
  0.00000000E+00  0.00000000E+00  0.00000000E+00
  0.00000000E+00  0.00000000E+00  0.00000000E+00
  0.00000000E+00  0.00000000E+00  0.00000000E+00
  0.00000000E+00  0.00000000E+00  0.00000000E+00
  0.00000000E+00  0.00000000E+00  0.00000000E+00
  0.00000000E+00  0.00000000E+00  0.00000000E+00
  0.00000000E+00  0.00000000E+00  0.00000000E+00
  0.00000000E+00  0.00000000E+00  0.00000000E+00
  0.00000000E+00  0.00000000E+00  0.00000000E+00
  0.00000000E+00  0.00000000E+00  0.00000000E+00
  0.00000000E+00  0.00000000E+00  0.00000000E+00
  0.00000000E+00  0.00000000E+00  0.00000000E+00
  0.00000000E+00  0.00000000E+00  0.00000000E+00
  0.00000000E+00  0.00000000E+00  0.00000000E+00
  0.00000000E+00  0.00000000E+00  0.00000000E+00
  0.00000000E+00  0.00000000E+00  0.00000000E+00
  0.00000000E+00  0.00000000E+00  0.00000000E+00
  0.00000000E+00  0.00000000E+00  0.00000000E+00
  0.00000000E+00  0.00000000E+00  0.00000000E+00
  0.00000000E+00  0.00000000E+00  0.00000000E+00
  0.00000000E+00  0.00000000E+00  0.00000000E+00
  0.00000000E+00  0.00000000E+00  0.00000000E+00
  0.00000000E+00  0.00000000E+00  0.00000000E+00
  0.00000000E+00  0.00000000E+00  0.00000000E+00
  0.00000000E+00  0.00000000E+00  0.00000000E+00
  0.00000000E+00  0.00000000E+00  0.00000000E+00
  0.00000000E+00  0.00000000E+00  0.00000000E+00
  0.00000000E+00  0.00000000E+00  0.00000000E+00
  0.00000000E+00  0.00000000E+00  0.00000000E+00
  0.00000000E+00  0.00000000E+00  0.00000000E+00
  0.00000000E+00  0.00000000E+00  0.00000000E+00
  0.00000000E+00  0.00000000E+00  0.00000000E+00
  0.00000000E+00  0.00000000E+00  0.00000000E+00
  0.00000000E+00  0.00000000E+00  0.00000000E+00
  0.00000000E+00  0.00000000E+00  0.00000000E+00
  0.00000000E+00  0.00000000E+00  0.00000000E+00
  0.00000000E+00  0.00000000E+00  0.00000000E+00
  0.00000000E+00  0.00000000E+00  0.00000000E+00
  0.00000000E+00  0.00000000E+00  0.00000000E+00
  0.00000000E+00  0.00000000E+00  0.00000000E+00
  0.00000000E+00  0.00000000E+00  0.00000000E+00
  0.00000000E+00  0.00000000E+00  0.00000000E+00
  0.00000000E+00  0.00000000E+00  0.00000000E+00
  0.00000000E+00  0.00000000E+00  0.00000000E+00
  0.00000000E+00  0.00000000E+00  0.00000000E+00
  0.00000000E+00  0.00000000E+00  0.00000000E+00
  0.00000000E+00  0.00000000E+00  0.00000000E+00
  0.00000000E+00  0.00000000E+00  0.00000000E+00
  0.00000000E+00  0.00000000E+00  0.00000000E+00
  0.00000000E+00  0.00000000E+00  0.00000000E+00
  0.00000000E+00  0.00000000E+00  0.00000000E+00
  0.00000000E+00  0.00000000E+00  0.00000000E+00
  0.00000000E+00  0.00000000E+00  0.00000000E+00
  0.00000000E+00  0.00000000E+00  0.00000000E+00
  0.00000000E+00  0.00000000E+00  0.00000000E+00
  0.00000000E+00  0.00000000E+00  0.00000000E+00
  0.00000000E+00  0.00000000E+00  0.00000000E+00
  0.00000000E+00  0.00000000E+00  0.00000000E+00
  0.00000000E+00  0.00000000E+00  0.00000000E+00
  0.00000000E+00  0.00000000E+00  0.00000000E+00
  0.00000000E+00  0.00000000E+00  0.00000000E+00
  0.00000000E+00  0.00000000E+00  0.00000000E+00
  0.00000000E+00  0.00000000E+00  0.00000000E+00
  0.00000000E+00  0.00000000E+00  0.00000000E+00
  0.00000000E+00  0.00000000E+00  0.00000000E+00
  0.00000000E+00  0.00000000E+00  0.00000000E+00
  0.00000000E+00  0.00000000E+00  0.00000000E+00
  0.00000000E+00  0.00000000E+00  0.00000000E+00
  0.00000000E+00  0.00000000E+00  0.00000000E+00
  0.00000000E+00  0.00000000E+00  0.00000000E+00
  0.00000000E+00  0.00000000E+00  0.00000000E+00
  0.00000000E+00  0.00000000E+00  0.00000000E+00
  0.00000000E+00  0.00000000E+00  0.00000000E+00
  0.00000000E+00  0.00000000E+00  0.00000000E+00
  0.00000000E+00  0.00000000E+00  0.00000000E+00
  0.00000000E+00  0.00000000E+00  0.00000000E+00
  0.00000000E+00  0.00000000E+00  0.00000000E+00
  0.00000000E+00  0.00000000E+00  0.00000000E+00
  0.00000000E+00  0.00000000E+00  0.00000000E+00
  0.00000000E+00  0.00000000E+00  0.00000000E+00
  0.00000000E+00  0.00000000E+00  0.00000000E+00
  0.00000000E+00  0.00000000E+00  0.00000000E+00
  0.00000000E+00  0.00000000E+00  0.00000000E+00
  0.00000000E+00  0.00000000E+00  0.00000000E+00
  0.00000000E+00  0.00000000E+00  0.00000000E+00
  0.00000000E+00  0.00000000E+00  0.00000000E+00
  0.00000000E+00  0.00000000E+00  0.00000000E+00
  0.00000000E+00  0.00000000E+00  0.00000000E+00
  0.00000000E+00  0.00000000E+00  0.00000000E+00
  0.00000000E+00  0.00000000E+00  0.00000000E+00
  0.00000000E+00  0.00000000E+00  0.00000000E+00
  0.00000000E+00  0.00000000E+00  0.00000000E+00
  0.00000000E+00  0.00000000E+00  0.00000000E+00
  0.00000000E+00  0.00000000E+00  0.00000000E+00
  0.00000000E+00  0.00000000E+00  0.00000000E+00
  0.00000000E+00  0.00000000E+00  0.00000000E+00
  0.00000000E+00  0.00000000E+00  0.00000000E+00
  0.00000000E+00  0.00000000E+00  0.00000000E+00
  0.00000000E+00  0.00000000E+00  0.00000000E+00
  0.00000000E+00  0.00000000E+00  0.00000000E+00
  0.00000000E+00  0.00000000E+00  0.00000000E+00
  0.00000000E+00  0.00000000E+00  0.00000000E+00
  0.00000000E+00  0.00000000E+00  0.00000000E+00
  0.00000000E+00  0.00000000E+00  0.00000000E+00
  0.00000000E+00  0.00000000E+00  0.00000000E+00
  0.00000000E+00  0.00000000E+00  0.00000000E+00
  0.00000000E+00  0.00000000E+00  0.00000000E+00
  0.00000000E+00  0.00000000E+00  0.00000000E+00
  0.00000000E+00  0.00000000E+00  0.00000000E+00
  0.00000000E+00  0.00000000E+00  0.00000000E+00
  0.00000000E+00  0.00000000E+00  0.00000000E+00
  0.00000000E+00  0.00000000E+00  0.00000000E+00
  0.00000000E+00  0.00000000E+00  0.00000000E+00
  0.00000000E+00  0.00000000E+00  0.00000000E+00
  0.00000000E+00  0.00000000E+00  0.00000000E+00
  0.00000000E+00  0.00000000E+00  0.00000000E+00
  0.00000000E+00  0.00000000E+00  0.00000000E+00
  0.00000000E+00  0.00000000E+00  0.00000000E+00
  0.00000000E+00  0.00000000E+00  0.00000000E+00
  0.00000000E+00  0.00000000E+00  0.00000000E+00
  0.00000000E+00  0.00000000E+00  0.00000000E+00
  0.00000000E+00  0.00000000E+00  0.00000000E+00
  0.00000000E+00  0.00000000E+00  0.00000000E+00
  0.00000000E+00  0.00000000E+00  0.00000000E+00
  0.00000000E+00  0.00000000E+00  0.00000000E+00
  0.00000000E+00  0.00000000E+00  0.00000000E+00
  0.00000000E+00  0.00000000E+00  0.00000000E+00
  0.00000000E+00  0.00000000E+00  0.00000000E+00
  0.00000000E+00  0.00000000E+00  0.00000000E+00
  0.00000000E+00  0.00000000E+00  0.00000000E+00
  0.00000000E+00  0.00000000E+00  0.00000000E+00
  0.00000000E+00  0.00000000E+00  0.00000000E+00
  0.00000000E+00  0.00000000E+00  0.00000000E+00
  0.00000000E+00  0.00000000E+00  0.00000000E+00
  0.00000000E+00  0.00000000E+00  0.00000000E+00
  0.00000000E+00  0.00000000E+00  0.00000000E+00
  0.00000000E+00  0.00000000E+00  0.00000000E+00
  0.00000000E+00  0.00000000E+00  0.00000000E+00
  0.00000000E+00  0.00000000E+00  0.00000000E+00
  0.00000000E+00  0.00000000E+00  0.00000000E+00
  0.00000000E+00  0.00000000E+00  0.00000000E+00
  0.00000000E+00  0.00000000E+00  0.00000000E+00
  0.00000000E+00  0.00000000E+00  0.00000000E+00
  0.00000000E+00  0.00000000E+00  0.00000000E+00
  0.00000000E+00  0.00000000E+00  0.00000000E+00
  0.00000000E+00  0.00000000E+00  0.00000000E+00
  0.00000000E+00  0.00000000E+00  0.00000000E+00
  0.00000000E+00  0.00000000E+00  0.00000000E+00
  0.00000000E+00  0.00000000E+00  0.00000000E+00
  0.00000000E+00  0.00000000E+00  0.00000000E+00
  0.00000000E+00  0.00000000E+00  0.00000000E+00
  0.00000000E+00  0.00000000E+00  0.00000000E+00
  0.00000000E+00  0.00000000E+00  0.00000000E+00
  0.00000000E+00  0.00000000E+00  0.00000000E+00
  0.00000000E+00  0.00000000E+00  0.00000000E+00
  0.00000000E+00  0.00000000E+00  0.00000000E+00
  0.00000000E+00  0.00000000E+00  0.00000000E+00
  0.00000000E+00  0.00000000E+00  0.00000000E+00
  0.00000000E+00  0.00000000E+00  0.00000000E+00
  0.00000000E+00  0.00000000E+00  0.00000000E+00
  0.00000000E+00  0.00000000E+00  0.00000000E+00
  0.00000000E+00  0.00000000E+00  0.00000000E+00
  0.00000000E+00  0.00000000E+00  0.00000000E+00
  0.00000000E+00  0.00000000E+00  0.00000000E+00