La1 Mn1 O3                              
1.0
       15.7527370453         0.0000000000         0.0000000000
        0.0000000000        15.7527370453         0.0000000000
        0.0000000000         0.0000000000        15.7527370453
   La   Mn    O    N
   64   64  187    5
Direct
     0.000000000         0.000000000         0.000000000
     0.000000000         0.000000000         0.250000000
     0.000000000         0.000000000         0.500000000
     0.000000000         0.000000000         0.749999970
     0.000000000         0.250000000         0.000000000
     0.000000000         0.250000000         0.250000000
     0.000000000         0.250000000         0.500000000
     0.000000000         0.250000000         0.749999970
     0.000000000         0.500000000         0.000000000
     0.000000000         0.500000000         0.250000000
     0.000000000         0.500000000         0.500000000
     0.000000000         0.500000000         0.749999970
     0.000000000         0.749999970         0.000000000
     0.000000000         0.749999970         0.250000000
     0.000000000         0.749999970         0.500000000
     0.000000000         0.749999970         0.749999970
     0.250000000         0.000000000         0.000000000
     0.250000000         0.000000000         0.250000000
     0.250000000         0.000000000         0.500000000
     0.250000000         0.000000000         0.749999970
     0.250000000         0.250000000         0.000000000
     0.250000000         0.250000000         0.250000000
     0.250000000         0.250000000         0.500000000
     0.250000000         0.250000000         0.749999970
     0.250000000         0.500000000         0.000000000
     0.250000000         0.500000000         0.250000000
     0.250000000         0.500000000         0.500000000
     0.250000000         0.500000000         0.749999970
     0.250000000         0.749999970         0.000000000
     0.250000000         0.749999970         0.250000000
     0.250000000         0.749999970         0.500000000
     0.250000000         0.749999970         0.749999970
     0.500000000         0.000000000         0.000000000
     0.500000000         0.000000000         0.250000000
     0.500000000         0.000000000         0.500000000
     0.500000000         0.000000000         0.749999970
     0.500000000         0.250000000         0.000000000
     0.500000000         0.250000000         0.250000000
     0.500000000         0.250000000         0.500000000
     0.500000000         0.250000000         0.749999970
     0.500000000         0.500000000         0.000000000
     0.500000000         0.500000000         0.250000000
     0.500000000         0.500000000         0.500000000
     0.500000000         0.500000000         0.749999970
     0.500000000         0.749999970         0.000000000
     0.500000000         0.749999970         0.250000000
     0.500000000         0.749999970         0.500000000
     0.500000000         0.749999970         0.749999970
     0.749999970         0.000000000         0.000000000
     0.749999970         0.000000000         0.250000000
     0.749999970         0.000000000         0.500000000
     0.749999970         0.000000000         0.749999970
     0.749999970         0.250000000         0.000000000
     0.749999970         0.250000000         0.250000000
     0.749999970         0.250000000         0.500000000
     0.749999970         0.250000000         0.749999970
     0.749999970         0.500000000         0.000000000
     0.749999970         0.500000000         0.250000000
     0.749999970         0.500000000         0.500000000
     0.749999970         0.500000000         0.749999970
     0.749999970         0.749999970         0.000000000
     0.749999970         0.749999970         0.250000000
     0.749999970         0.749999970         0.500000000
     0.749999970         0.749999970         0.749999970
     0.125000000         0.125000000         0.125000000
     0.125000000         0.125000000         0.374999985
     0.125000000         0.125000000         0.625000015
     0.125000000         0.125000000         0.874999985
     0.125000000         0.374999985         0.125000000
     0.125000000         0.374999985         0.374999985
     0.125000000         0.374999985         0.625000015
     0.125000000         0.374999985         0.874999985
     0.125000000         0.625000015         0.125000000
     0.125000000         0.625000015         0.374999985
     0.125000000         0.625000015         0.625000015
     0.125000000         0.625000015         0.874999985
     0.125000000         0.874999985         0.125000000
     0.125000000         0.874999985         0.374999985
     0.125000000         0.874999985         0.625000015
     0.125000000         0.874999985         0.874999985
     0.374999985         0.125000000         0.125000000
     0.374999985         0.125000000         0.374999985
     0.374999985         0.125000000         0.625000015
     0.374999985         0.125000000         0.874999985
     0.374999985         0.374999985         0.125000000
     0.374999985         0.374999985         0.374999985
     0.374999985         0.374999985         0.625000015
     0.374999985         0.374999985         0.874999985
     0.374999985         0.625000015         0.125000000
     0.374999985         0.625000015         0.374999985
     0.374999985         0.625000015         0.625000015
     0.374999985         0.625000015         0.874999985
     0.374999985         0.874999985         0.125000000
     0.374999985         0.874999985         0.374999985
     0.374999985         0.874999985         0.625000015
     0.374999985         0.874999985         0.874999985
     0.625000015         0.125000000         0.125000000
     0.625000015         0.125000000         0.374999985
     0.625000015         0.125000000         0.625000015
     0.625000015         0.125000000         0.874999985
     0.625000015         0.374999985         0.125000000
     0.625000015         0.374999985         0.374999985
     0.625000015         0.374999985         0.625000015
     0.625000015         0.374999985         0.874999985
     0.625000015         0.625000015         0.125000000
     0.625000015         0.625000015         0.374999985
     0.625000015         0.625000015         0.625000015
     0.625000015         0.625000015         0.874999985
     0.625000015         0.874999985         0.125000000
     0.625000015         0.874999985         0.374999985
     0.625000015         0.874999985         0.625000015
     0.625000015         0.874999985         0.874999985
     0.874999985         0.125000000         0.125000000
     0.874999985         0.125000000         0.374999985
     0.874999985         0.125000000         0.625000015
     0.874999985         0.125000000         0.874999985
     0.874999985         0.374999985         0.125000000
     0.874999985         0.374999985         0.374999985
     0.874999985         0.374999985         0.625000015
     0.874999985         0.374999985         0.874999985
     0.874999985         0.625000015         0.125000000
     0.874999985         0.625000015         0.374999985
     0.874999985         0.625000015         0.625000015
     0.874999985         0.625000015         0.874999985
     0.874999985         0.874999985         0.125000000
     0.874999985         0.874999985         0.374999985
     0.874999985         0.874999985         0.625000015
     0.874999985         0.874999985         0.874999985
     0.000000000         0.125000000         0.125000000
     0.000000000         0.125000000         0.374999985
     0.000000000         0.125000000         0.625000015
     0.000000000         0.125000000         0.874999985
     0.000000000         0.374999985         0.125000000
     0.000000000         0.374999985         0.374999985
     0.000000000         0.374999985         0.625000015
     0.000000000         0.374999985         0.874999985
     0.000000000         0.625000015         0.125000000
     0.000000000         0.625000015         0.374999985
     0.000000000         0.625000015         0.625000015
     0.000000000         0.625000015         0.874999985
     0.000000000         0.874999985         0.125000000
     0.000000000         0.874999985         0.374999985
     0.000000000         0.874999985         0.625000015
     0.000000000         0.874999985         0.874999985
     0.250000000         0.125000000         0.125000000
     0.250000000         0.125000000         0.374999985
     0.250000000         0.125000000         0.625000015
     0.250000000         0.125000000         0.874999985
     0.250000000         0.374999985         0.125000000
     0.250000000         0.374999985         0.374999985
     0.250000000         0.374999985         0.625000015
     0.250000000         0.374999985         0.874999985
     0.250000000         0.625000015         0.125000000
     0.250000000         0.625000015         0.374999985
     0.250000000         0.625000015         0.625000015
     0.250000000         0.625000015         0.874999985
     0.250000000         0.874999985         0.125000000
     0.250000000         0.874999985         0.374999985
     0.250000000         0.874999985         0.625000015
     0.250000000         0.874999985         0.874999985
     0.500000000         0.125000000         0.125000000
     0.500000000         0.125000000         0.374999985
     0.500000000         0.125000000         0.625000015
     0.500000000         0.125000000         0.874999985
     0.500000000         0.374999985         0.125000000
     0.500000000         0.374999985         0.374999985
     0.500000000         0.374999985         0.625000015
     0.500000000         0.374999985         0.874999985
     0.500000000         0.625000015         0.125000000
     0.500000000         0.625000015         0.374999985
     0.500000000         0.625000015         0.625000015
     0.500000000         0.625000015         0.874999985
     0.500000000         0.874999985         0.125000000
     0.500000000         0.874999985         0.374999985
     0.500000000         0.874999985         0.625000015
     0.500000000         0.874999985         0.874999985
     0.749999970         0.125000000         0.125000000
     0.749999970         0.125000000         0.374999985
     0.749999970         0.125000000         0.625000015
     0.749999970         0.125000000         0.874999985
     0.749999970         0.374999985         0.125000000
     0.749999970         0.374999985         0.374999985
     0.749999970         0.374999985         0.625000015
     0.749999970         0.374999985         0.874999985
     0.749999970         0.625000015         0.125000000
     0.749999970         0.625000015         0.374999985
     0.749999970         0.625000015         0.625000015
     0.749999970         0.625000015         0.874999985
     0.749999970         0.874999985         0.125000000
     0.749999970         0.874999985         0.374999985
     0.749999970         0.874999985         0.625000015
     0.749999970         0.874999985         0.874999985
     0.125000000         0.125000000         0.000000000
     0.125000000         0.125000000         0.250000000
     0.125000000         0.125000000         0.500000000
     0.125000000         0.125000000         0.749999970
     0.125000000         0.374999985         0.000000000
     0.125000000         0.374999985         0.250000000
     0.125000000         0.374999985         0.500000000
     0.125000000         0.374999985         0.749999970
     0.125000000         0.625000015         0.000000000
     0.125000000         0.625000015         0.250000000
     0.125000000         0.625000015         0.500000000
     0.125000000         0.625000015         0.749999970
     0.125000000         0.874999985         0.000000000
     0.125000000         0.874999985         0.250000000
     0.125000000         0.874999985         0.500000000
     0.125000000         0.874999985         0.749999970
     0.374999985         0.125000000         0.000000000
     0.374999985         0.125000000         0.250000000
     0.374999985         0.125000000         0.500000000
     0.374999985         0.125000000         0.749999970
     0.374999985         0.374999985         0.000000000
     0.374999985         0.374999985         0.250000000
     0.374999985         0.374999985         0.500000000
     0.374999985         0.374999985         0.749999970
     0.374999985         0.625000015         0.000000000
     0.374999985         0.625000015         0.250000000
     0.374999985         0.625000015         0.500000000
     0.374999985         0.625000015         0.749999970
     0.374999985         0.874999985         0.000000000
     0.374999985         0.874999985         0.250000000
     0.374999985         0.874999985         0.500000000
     0.374999985         0.874999985         0.749999970
     0.625000015         0.125000000         0.000000000
     0.625000015         0.125000000         0.250000000
     0.625000015         0.125000000         0.500000000
     0.625000015         0.125000000         0.749999970
     0.625000015         0.374999985         0.000000000
     0.625000015         0.374999985         0.250000000
     0.625000015         0.374999985         0.500000000
     0.625000015         0.374999985         0.749999970
     0.625000015         0.625000015         0.000000000
     0.625000015         0.625000015         0.250000000
     0.625000015         0.625000015         0.500000000
     0.625000015         0.625000015         0.749999970
     0.625000015         0.874999985         0.000000000
     0.625000015         0.874999985         0.250000000
     0.625000015         0.874999985         0.500000000
     0.625000015         0.874999985         0.749999970
     0.874999985         0.125000000         0.000000000
     0.874999985         0.125000000         0.250000000
     0.874999985         0.125000000         0.500000000
     0.874999985         0.125000000         0.749999970
     0.874999985         0.374999985         0.000000000
     0.874999985         0.374999985         0.250000000
     0.874999985         0.374999985         0.500000000
     0.874999985         0.374999985         0.749999970
     0.874999985         0.625000015         0.000000000
     0.874999985         0.625000015         0.250000000
     0.874999985         0.625000015         0.500000000
     0.874999985         0.625000015         0.749999970
     0.874999985         0.874999985         0.000000000
     0.874999985         0.874999985         0.250000000
     0.874999985         0.874999985         0.500000000
     0.874999985         0.874999985         0.749999970
     0.125000000         0.000000000         0.125000000
     0.125000000         0.000000000         0.374999985
     0.125000000         0.000000000         0.625000015
     0.125000000         0.000000000         0.874999985
     0.125000000         0.250000000         0.125000000
     0.125000000         0.250000000         0.374999985
     0.125000000         0.250000000         0.625000015
     0.125000000         0.250000000         0.874999985
     0.125000000         0.500000000         0.125000000
     0.125000000         0.500000000         0.374999985
     0.125000000         0.500000000         0.625000015
     0.125000000         0.500000000         0.874999985
     0.125000000         0.749999970         0.125000000
     0.125000000         0.749999970         0.374999985
     0.125000000         0.749999970         0.625000015
     0.125000000         0.749999970         0.874999985
     0.374999985         0.000000000         0.125000000
     0.374999985         0.000000000         0.374999985
     0.374999985         0.000000000         0.625000015
     0.374999985         0.000000000         0.874999985
     0.374999985         0.250000000         0.125000000
     0.374999985         0.250000000         0.374999985
     0.374999985         0.250000000         0.625000015
     0.374999985         0.250000000         0.874999985
     0.374999985         0.749999970         0.125000000
     0.374999985         0.749999970         0.374999985
     0.374999985         0.749999970         0.625000015
     0.374999985         0.749999970         0.874999985
     0.625000015         0.000000000         0.125000000
     0.625000015         0.000000000         0.374999985
     0.625000015         0.000000000         0.625000015
     0.625000015         0.000000000         0.874999985
     0.625000015         0.250000000         0.125000000
     0.625000015         0.250000000         0.374999985
     0.625000015         0.250000000         0.625000015
     0.625000015         0.250000000         0.874999985
     0.625000015         0.500000000         0.125000000
     0.625000015         0.500000000         0.374999985
     0.625000015         0.500000000         0.625000015
     0.625000015         0.749999970         0.125000000
     0.625000015         0.749999970         0.374999985
     0.625000015         0.749999970         0.625000015
     0.625000015         0.749999970         0.874999985
     0.874999985         0.000000000         0.125000000
     0.874999985         0.000000000         0.374999985
     0.874999985         0.000000000         0.625000015
     0.874999985         0.000000000         0.874999985
     0.874999985         0.250000000         0.125000000
     0.874999985         0.250000000         0.374999985
     0.874999985         0.250000000         0.625000015
     0.874999985         0.250000000         0.874999985
     0.874999985         0.500000000         0.125000000
     0.874999985         0.500000000         0.374999985
     0.874999985         0.500000000         0.625000015
     0.874999985         0.500000000         0.874999985
     0.874999985         0.749999970         0.125000000
     0.874999985         0.749999970         0.374999985
     0.874999985         0.749999970         0.625000015
     0.874999985         0.749999970         0.874999985
     0.374999985         0.500000000         0.125000000
     0.374999985         0.500000000         0.374999985
     0.374999985         0.500000000         0.625000015
     0.374999985         0.500000000         0.874999985
     0.625000015         0.500000000         0.874999985
