La1 Mn1 O3                              
   1.00000000000000     
    15.9534637105210919    0.0000000000000000    0.0000000000000000
     0.0000000000000000   15.7196092359664004    0.0000000000000000
     0.0000000000000000    0.0000000000000000   15.7136598713403934
   La   Mn   O    N 
    64    64   190     2
Direct
  0.0002133074236402  0.0000000000000000  0.0000000000000000
  0.0000516933812359  0.0000000000000000  0.2495616805844304
  0.0000484962685026  0.0000000000000000  0.5000000000000000
  0.0000516933812359  0.0000000000000000  0.7504382894155667
  0.0005119952511175  0.2499764297586738  0.0000000000000000
  0.0000813803206827  0.2501628759330897  0.2509173677841186
 -0.0000716492680584  0.2497537203841871  0.5000000000000000
  0.0000813803206827  0.2501628759330897  0.7490826022158781
  0.0017157929216499  0.5000000000000000  0.0000000000000000
  0.0004605005329729  0.5000000000000000  0.2498241897210430
 -0.0005415165470315  0.5000000000000000  0.5000000000000000
  0.0004605005329729  0.5000000000000000  0.7501757802789548
  0.0005119952511175  0.7500235402413241  0.0000000000000000
  0.0000813803206827  0.7498370940669078  0.2509173677841186
 -0.0000716492680584  0.7502462496158107  0.5000000000000000
  0.0000813803206827  0.7498370940669078  0.7490826022158781
  0.2506549057918190  0.0000000000000000  0.0000000000000000
  0.2494680084748238  0.0000000000000000  0.2501026377851081
  0.2489185608529297  0.0000000000000000  0.5000000000000000
  0.2494680084748238  0.0000000000000000  0.7498973322148900
  0.2514310631345119  0.2510102569585589  0.0000000000000000
  0.2501152725855072  0.2504566335718525  0.2486649596717309
  0.2497963421029019  0.2500663927527241  0.5000000000000000
  0.2501152725855072  0.2504566335718525  0.7513350103282670
  0.2528072560918406  0.5000000000000000  0.0000000000000000
  0.2517275592263788  0.5000000000000000  0.2496979501054738
  0.2503886415414209  0.5000000000000000  0.5000000000000000
  0.2517275592263788  0.5000000000000000  0.7503020198945235
  0.2514310631345119  0.7489897130414382  0.0000000000000000
  0.2501152725855072  0.7495433364281450  0.2486649596717309
  0.2497963421029019  0.7499335772472727  0.5000000000000000
  0.2501152725855072  0.7495433364281450  0.7513350103282670
  0.4993450942081807  0.0000000000000000  0.0000000000000000
  0.5005319915251765  0.0000000000000000  0.2501026377851081
  0.5010814391470702  0.0000000000000000  0.5000000000000000
  0.5005319915251765  0.0000000000000000  0.7498973322148900
  0.4985689368654883  0.2510102569585589  0.0000000000000000
  0.4998847274144926  0.2504566335718525  0.2486649596717309
  0.5002036578970984  0.2500663927527241  0.5000000000000000
  0.4998847274144926  0.2504566335718525  0.7513350103282670
  0.4971927439081593  0.5000000000000000  0.0000000000000000
  0.4982724407736214  0.5000000000000000  0.2496979501054738
  0.4996113584585787  0.5000000000000000  0.5000000000000000
  0.4982724407736214  0.5000000000000000  0.7503020198945235
  0.4985689368654883  0.7489897130414382  0.0000000000000000
  0.4998847274144926  0.7495433364281450  0.2486649596717309
  0.5002036578970984  0.7499335772472727  0.5000000000000000
  0.4998847274144926  0.7495433364281450  0.7513350103282670
  0.7497866625763567  0.0000000000000000  0.0000000000000000
  0.7499482766187616  0.0000000000000000  0.2495616805844304
  0.7499514737314951  0.0000000000000000  0.5000000000000000
  0.7499482766187616  0.0000000000000000  0.7504382894155667
  0.7494879747488802  0.2499764297586738  0.0000000000000000
  0.7499185896793150  0.2501628759330897  0.2509173677841186
  0.7500716192680552  0.2497537203841871  0.5000000000000000
  0.7499185896793150  0.2501628759330897  0.7490826022158781
  0.7482841770783476  0.5000000000000000  0.0000000000000000
  0.7495394694670243  0.5000000000000000  0.2498241897210430
  0.7505414865470297  0.5000000000000000  0.5000000000000000
  0.7495394694670243  0.5000000000000000  0.7501757802789548
  0.7494879747488801  0.7500235402413241  0.0000000000000000
  0.7499185896793150  0.7498370940669078  0.2509173677841186
  0.7500716192680552  0.7502462496158107  0.5000000000000000
  0.7499185896793150  0.7498370940669078  0.7490826022158781
  0.1249279090526115  0.1250294808970752  0.1247494683427874
  0.1249617975066907  0.1252252367075085  0.3749070215470082
  0.1249617975066907  0.1252252367075085  0.6250929784529924
  0.1249279090526115  0.1250294808970752  0.8752505166572149
  0.1251740438773968  0.3748540279924635  0.1250472233169580
  0.1251738467368678  0.3751977394778017  0.3750330524427343
  0.1251738467368678  0.3751977394778017  0.6249669475572658
  0.1251740438773968  0.3748540279924635  0.8749527616830445
  0.1251740438773968  0.6251459720075364  0.1250472233169580
  0.1251738467368678  0.6248022605221972  0.3750330524427343
  0.1251738467368678  0.6248022605221972  0.6249669475572658
  0.1251740438773968  0.6251459720075364  0.8749527616830445
  0.1249279090526115  0.8749705041029271  0.1247494683427874
  0.1249617975066907  0.8747747482924939  0.3749070215470082
  0.1249617975066907  0.8747747482924939  0.6250929784529924
  0.1249279090526115  0.8749705041029271  0.8752505166572149
  0.3749999850000023  0.1252626112983705  0.1255536433995759
  0.3749999850000023  0.1244156177580500  0.3752188110058137
  0.3749999850000023  0.1244156177580500  0.6247811889941857
  0.3749999850000023  0.1252626112983705  0.8744463416004256
  0.3749999850000023  0.3776367306676329  0.1253131231870547
  0.3749999850000023  0.3746656922120757  0.3754869337202896
  0.3749999850000023  0.3746656922120757  0.6245130662797099
  0.3749999850000023  0.3776367306676329  0.8746868618129482
  0.3749999850000023  0.6223632693323673  0.1253131231870547
  0.3749999850000023  0.6253343077879240  0.3754869337202896
  0.3749999850000023  0.6253343077879240  0.6245130662797099
  0.3749999850000023  0.6223632693323673  0.8746868618129482
  0.3749999850000023  0.8747373737016323  0.1255536433995759
  0.3749999850000023  0.8755843672419529  0.3752188110058137
  0.3749999850000023  0.8755843672419529  0.6247811889941857
  0.3749999850000023  0.8747373737016323  0.8744463416004257
  0.6250721059473859  0.1250294808970752  0.1247494683427874
  0.6250382174933067  0.1252252367075085  0.3749070215470082
  0.6250382174933067  0.1252252367075085  0.6250929784529924
  0.6250721059473859  0.1250294808970752  0.8752505166572149
  0.6248259711226010  0.3748540279924635  0.1250472233169580
  0.6248261682631292  0.3751977394778017  0.3750330524427343
  0.6248261682631292  0.3751977394778017  0.6249669475572657
  0.6248259711226010  0.3748540279924635  0.8749527616830445
  0.6248259711226010  0.6251459720075364  0.1250472233169580
  0.6248261682631292  0.6248022605221972  0.3750330524427343
  0.6248261682631292  0.6248022605221972  0.6249669475572658
  0.6248259711226010  0.6251459720075364  0.8749527616830445
  0.6250721059473859  0.8749705041029271  0.1247494683427874
  0.6250382174933067  0.8747747482924939  0.3749070215470082
  0.6250382174933067  0.8747747482924939  0.6250929784529924
  0.6250721059473859  0.8749705041029271  0.8752505166572149
  0.8749999850000023  0.1249524236156691  0.1247742186953815
  0.8749999850000023  0.1251190681146676  0.3749489241158418
  0.8749999850000023  0.1251190681146676  0.6250510758841589
  0.8749999850000023  0.1249524236156691  0.8752257663046206
  0.8749999850000023  0.3756147561699497  0.1246743728697896
  0.8749999850000023  0.3749252745567022  0.3746185194999205
  0.8749999850000023  0.3749252745567022  0.6253814805000795
  0.8749999850000023  0.3756147561699497  0.8753256121302132
  0.8749999850000023  0.6243852438300505  0.1246743728697896
  0.8749999850000023  0.6250747254432978  0.3746185194999205
  0.8749999850000023  0.6250747254432978  0.6253814805000795
  0.8749999850000023  0.6243852438300503  0.8753256121302132
  0.8749999850000023  0.8750475613843328  0.1247742186953815
  0.8749999850000023  0.8748809168853350  0.3749489241158418
  0.8749999850000023  0.8748809168853350  0.6250510758841589
  0.8749999850000023  0.8750475613843328  0.8752257663046206
  0.0001847525321650  0.1236085914171275  0.1240407638243820
  0.0019745929497813  0.1267063173365360  0.3749495180058076
  0.0019745929497813  0.1267063173365360  0.6250504819941923
  0.0001847525321650  0.1236085914171275  0.8759592211756196
  0.0011774848992818  0.3773506597982775  0.1247262102970744
 -0.0016340807715587  0.3742232634812989  0.3743566738310008
 -0.0016340807715587  0.3742232634812989  0.6256433261690003
  0.0011774848992818  0.3773506597982775  0.8752737747029278
  0.0011774848992818  0.6226493402017219  0.1247262102970744
 -0.0016340807715587  0.6257767365187015  0.3743566738310008
 -0.0016340807715587  0.6257767365187015  0.6256433261690003
  0.0011774848992818  0.6226493402017219  0.8752737747029278
  0.0001847525321650  0.8763913935828744  0.1240407638243820
  0.0019745929497813  0.8732936676634661  0.3749495180058076
  0.0019745929497813  0.8732936676634661  0.6250504819941923
  0.0001847525321650  0.8763913935828744  0.8759592211756196
  0.2496157224163992  0.1258782195490371  0.1261582389638602
  0.2477491216577030  0.1230189283159961  0.3750980156095567
  0.2477491216577030  0.1230189283159961  0.6249019843904429
  0.2496157224163992  0.1258782195490371  0.8738417460361424
  0.2489334286077868  0.3702868581024106  0.1249715906243051
  0.2516672000172410  0.3750768940623357  0.3764643525996204
  0.2516672000172410  0.3750768940623357  0.6235356474003797
  0.2489334286077868  0.3702868581024106  0.8750283943756973
  0.2489334286077868  0.6297131418975894  0.1249715906243051
  0.2516672000172410  0.6249231059376644  0.3764643525996204
  0.2516672000172410  0.6249231059376644  0.6235356474003797
  0.2489334286077868  0.6297131418975894  0.8750283943756973
  0.2496157224163992  0.8741217654509654  0.1261582389638602
  0.2477491216577030  0.8769810566840069  0.3750980156095567
  0.2477491216577030  0.8769810566840069  0.6249019843904429
  0.2496157224163992  0.8741217654509654  0.8738417460361424
  0.5003842775836004  0.1258782195490371  0.1261582389638602
  0.5022508783422971  0.1230189283159961  0.3750980156095567
  0.5022508783422971  0.1230189283159961  0.6249019843904429
  0.5003842775836004  0.1258782195490371  0.8738417460361424
  0.5010665713922131  0.3702868581024106  0.1249715906243051
  0.4983327999827586  0.3750768940623357  0.3764643525996204
  0.4983327999827586  0.3750768940623357  0.6235356474003797
  0.5010665713922131  0.3702868581024106  0.8750283943756973
  0.5010665713922131  0.6297131418975895  0.1249715906243051
  0.4983327999827586  0.6249231059376644  0.3764643525996204
  0.4983327999827586  0.6249231059376644  0.6235356474003797
  0.5010665713922131  0.6297131418975894  0.8750283943756973
  0.5003842775836004  0.8741217654509654  0.1261582389638602
  0.5022508783422971  0.8769810566840069  0.3750980156095567
  0.5022508783422971  0.8769810566840069  0.6249019843904429
  0.5003842775836004  0.8741217654509654  0.8738417460361424
  0.7498152174678321  0.1236085914171275  0.1240407638243820
  0.7480253770502160  0.1267063173365360  0.3749495180058076
  0.7480253770502160  0.1267063173365360  0.6250504819941923
  0.7498152174678321  0.1236085914171275  0.8759592211756196
  0.7488224851007158  0.3773506597982775  0.1247262102970744
  0.7516340507715566  0.3742232634812989  0.3743566738310008
  0.7516340507715566  0.3742232634812989  0.6256433261690003
  0.7488224851007158  0.3773506597982775  0.8752737747029278
  0.7488224851007158  0.6226493402017219  0.1247262102970744
  0.7516340507715566  0.6257767365187015  0.3743566738310008
  0.7516340507715566  0.6257767365187015  0.6256433261690003
  0.7488224851007158  0.6226493402017219  0.8752737747029278
  0.7498152174678321  0.8763913935828744  0.1240407638243820
  0.7480253770502160  0.8732936676634661  0.3749495180058076
  0.7480253770502160  0.8732936676634661  0.6250504819941923
  0.7498152174678321  0.8763913935828744  0.8759592211756196
  0.1256600683148507  0.1544953660754746  0.0000000000000000
  0.1243027976706386  0.0954478685099242  0.2495489196814821
  0.1251767801039477  0.1549369398317265  0.5000000000000000
  0.1243027976706386  0.0954478685099242  0.7504510503185152
  0.1243175734427690  0.3459308119874734  0.0000000000000000
  0.1253046567885996  0.4037934552481834  0.2504462078197663
  0.1241366500423313  0.3460602752592093  0.5000000000000000
  0.1253046567885996  0.4037934552481834  0.7495537621802316
  0.1243175734427690  0.6540691880125266  0.0000000000000000
  0.1253046567885996  0.5962065447518163  0.2504462078197663
  0.1241366500423313  0.6539397247407908  0.5000000000000000
  0.1253046567885996  0.5962065447518163  0.7495537621802316
  0.1256600683148507  0.8455046189245276  0.0000000000000000
  0.1243027976706386  0.9045521164900784  0.2495489196814821
  0.1251767801039477  0.8450630451682761  0.5000000000000000
  0.1243027976706386  0.9045521164900784  0.7504510503185152
  0.3749999850000023  0.0963405725568610  0.0000000000000000
  0.3749999850000023  0.1539570491929135  0.2507847075523335
  0.3749999850000023  0.0952096219022702  0.5000000000000000
  0.3749999850000023  0.1539570491929135  0.7492152624476635
  0.3749999850000023  0.4020433511134094  0.0000000000000000
  0.3749999850000023  0.3459328837289216  0.2508417374813481
  0.3749999850000023  0.4037487414853563  0.5000000000000000
  0.3749999850000023  0.3459328837289216  0.7491582325186493
  0.3749999850000023  0.5979566488865904  0.0000000000000000
  0.3749999850000023  0.6540671162710781  0.2508417374813481
  0.3749999850000023  0.5962512585146437  0.5000000000000000
  0.3749999850000023  0.6540671162710781  0.7491582325186493
  0.3749999850000023  0.9036594124431417  0.0000000000000000
  0.3749999850000023  0.8460429358070886  0.2507847075523335
  0.3749999850000023  0.9047903630977315  0.5000000000000000
  0.3749999850000023  0.8460429358070886  0.7492152624476635
  0.6243399466851478  0.1544953660754746  0.0000000000000000
  0.6256972173293589  0.0954478685099242  0.2495489196814821
  0.6248232348960505  0.1549369398317265  0.5000000000000000
  0.6256972173293589  0.0954478685099242  0.7504510503185152
  0.6256824415572290  0.3459308119874734  0.0000000000000000
  0.6246953582113982  0.4037934552481834  0.2504462078197663
  0.6258633649576667  0.3460602752592093  0.5000000000000000
  0.6246953582113982  0.4037934552481834  0.7495537621802316
  0.6256824415572290  0.6540691880125266  0.0000000000000000
  0.6246953582113982  0.5962065447518163  0.2504462078197663
  0.6258633649576667  0.6539397247407908  0.5000000000000000
  0.6246953582113982  0.5962065447518163  0.7495537621802316
  0.6243399466851478  0.8455046189245276  0.0000000000000000
  0.6256972173293589  0.9045521164900784  0.2495489196814821
  0.6248232348960505  0.8450630451682761  0.5000000000000000
  0.6256972173293589  0.9045521164900784  0.7504510503185152
  0.8749999850000023  0.0958160956520448  0.0000000000000000
  0.8749999850000023  0.1538105464116570  0.2499725772373641
  0.8749999850000023  0.0963080115002227  0.5000000000000000
  0.8749999850000023  0.1538105464116570  0.7500273927626339
  0.8749999850000023  0.4046335000311923  0.0000000000000000
  0.8749999850000023  0.3457284776826161  0.2492329472697907
  0.8749999850000023  0.4040936939127787  0.5000000000000000
  0.8749999850000023  0.3457284776826161  0.7507670227302070
  0.8749999850000023  0.5953664999688076  0.0000000000000000
  0.8749999850000023  0.6542715223173836  0.2492329472697907
  0.8749999850000023  0.5959063060872214  0.5000000000000000
  0.8749999850000023  0.6542715223173836  0.7507670227302070
  0.8749999850000023  0.9041838893479571  0.0000000000000000
  0.8749999850000023  0.8461894385883451  0.2499725772373641
  0.8749999850000023  0.9036919734997794  0.5000000000000000
  0.8749999850000023  0.8461894385883451  0.7500273927626339
  0.1263719636817564  0.0000000000000000  0.0954996874849090
  0.1230418638571091  0.0000000000000000  0.4045560222012217
  0.1230418638571091  0.0000000000000000  0.5954439777987784
  0.1263719636817564  0.0000000000000000  0.9045002975150929
  0.1224206575572816  0.2497937470988899  0.1542523744832669
  0.1263503543344324  0.2506389689806274  0.3454727624849350
  0.1263503543344324  0.2506389689806274  0.6545272375150653
  0.1224206575572816  0.2497937470988899  0.8457476105167352
  0.1279014530503104  0.5000000000000000  0.0961238170750255
  0.1238561178943501  0.5000000000000000  0.4043559312690993
  0.1238561178943501  0.5000000000000000  0.5956440687309014
  0.1279014530503104  0.5000000000000000  0.9038761679249770
  0.1224206575572816  0.7502062229011073  0.1542523744832669
  0.1263503543344324  0.7493610010193699  0.3454727624849350
  0.1263503543344324  0.7493610010193699  0.6545272375150653
  0.1224206575572816  0.7502062229011073  0.8457476105167352
  0.3749999850000023  0.0000000000000000  0.1530813462545804
  0.3749999850000023  0.0000000000000000  0.3451330279597605
  0.3749999850000023  0.0000000000000000  0.6548669720402398
  0.3749999850000023  0.0000000000000000  0.8469186387454212
  0.3749999850000023  0.2501485500580037  0.0964782730096438
  0.3749999850000023  0.2486560588919532  0.4044511715793617
  0.3749999850000023  0.2486560588919532  0.5955488284206382
  0.3749999850000023  0.2501485500580037  0.9035217119903587
  0.3749999850000023  0.5000000000000000  0.3475747973646533
  0.3749999850000023  0.5000000000000000  0.6524252026353472
  0.3749999850000023  0.7498514199419946  0.0964782730096438
  0.3749999850000023  0.7513439111080443  0.4044511715793617
  0.3749999850000023  0.7513439111080443  0.5955488284206382
  0.3749999850000023  0.7498514199419946  0.9035217119903587
  0.6236280513182427  0.0000000000000000  0.0954996874849090
  0.6269581511428881  0.0000000000000000  0.4045560222012217
  0.6269581511428881  0.0000000000000000  0.5954439777987784
  0.6236280513182427  0.0000000000000000  0.9045002975150929
  0.6275793574427165  0.2497937470988899  0.1542523744832669
  0.6236496606655658  0.2506389689806274  0.3454727624849350
  0.6236496606655658  0.2506389689806274  0.6545272375150653
  0.6275793574427165  0.2497937470988899  0.8457476105167352
  0.6220985619496875  0.5000000000000000  0.0961238170750255
  0.6261438971056477  0.5000000000000000  0.4043559312690993
  0.6261438971056477  0.5000000000000000  0.5956440687309014
  0.6220985619496875  0.5000000000000000  0.9038761679249770
  0.6275793574427165  0.7502062229011073  0.1542523744832669
  0.6236496606655658  0.7493610010193699  0.3454727624849350
  0.6236496606655658  0.7493610010193699  0.6545272375150653
  0.6275793574427165  0.7502062229011073  0.8457476105167352
  0.8749999850000023  0.0000000000000000  0.1542134111252119
  0.8749999850000023  0.0000000000000000  0.3464212010277173
  0.8749999850000023  0.0000000000000000  0.6535787989722819
  0.8749999850000023  0.0000000000000000  0.8457865738747902
  0.8749999850000023  0.2504999593223795  0.0957775996965720
  0.8749999850000023  0.2497614745794771  0.4039201719812812
  0.8749999850000023  0.2497614745794771  0.5960798280187193
  0.8749999850000023  0.2504999593223795  0.9042223853034301
  0.8749999850000023  0.5000000000000000  0.1546590541151089
  0.8749999850000023  0.5000000000000000  0.3458190270190654
  0.8749999850000023  0.5000000000000000  0.6541809729809346
  0.8749999850000023  0.5000000000000000  0.8453409308848937
  0.8749999850000023  0.7495000106776177  0.0957775996965720
  0.8749999850000023  0.7502384954205196  0.4039201719812812
  0.8749999850000023  0.7502384954205196  0.5960798280187193
  0.8749999850000023  0.7495000106776177  0.9042223853034301
  0.3749999850000023  0.5000000000000000  0.1524627491886526
  0.3749999850000023  0.5000000000000000  0.8475372358113500
 
  0.00000000E+00  0.00000000E+00  0.00000000E+00
  0.00000000E+00  0.00000000E+00  0.00000000E+00
  0.00000000E+00  0.00000000E+00  0.00000000E+00
  0.00000000E+00  0.00000000E+00  0.00000000E+00
  0.00000000E+00  0.00000000E+00  0.00000000E+00
  0.00000000E+00  0.00000000E+00  0.00000000E+00
  0.00000000E+00  0.00000000E+00  0.00000000E+00
  0.00000000E+00  0.00000000E+00  0.00000000E+00
  0.00000000E+00  0.00000000E+00  0.00000000E+00
  0.00000000E+00  0.00000000E+00  0.00000000E+00
  0.00000000E+00  0.00000000E+00  0.00000000E+00
  0.00000000E+00  0.00000000E+00  0.00000000E+00
  0.00000000E+00  0.00000000E+00  0.00000000E+00
  0.00000000E+00  0.00000000E+00  0.00000000E+00
  0.00000000E+00  0.00000000E+00  0.00000000E+00
  0.00000000E+00  0.00000000E+00  0.00000000E+00
  0.00000000E+00  0.00000000E+00  0.00000000E+00
  0.00000000E+00  0.00000000E+00  0.00000000E+00
  0.00000000E+00  0.00000000E+00  0.00000000E+00
  0.00000000E+00  0.00000000E+00  0.00000000E+00
  0.00000000E+00  0.00000000E+00  0.00000000E+00
  0.00000000E+00  0.00000000E+00  0.00000000E+00
  0.00000000E+00  0.00000000E+00  0.00000000E+00
  0.00000000E+00  0.00000000E+00  0.00000000E+00
  0.00000000E+00  0.00000000E+00  0.00000000E+00
  0.00000000E+00  0.00000000E+00  0.00000000E+00
  0.00000000E+00  0.00000000E+00  0.00000000E+00
  0.00000000E+00  0.00000000E+00  0.00000000E+00
  0.00000000E+00  0.00000000E+00  0.00000000E+00
  0.00000000E+00  0.00000000E+00  0.00000000E+00
  0.00000000E+00  0.00000000E+00  0.00000000E+00
  0.00000000E+00  0.00000000E+00  0.00000000E+00
  0.00000000E+00  0.00000000E+00  0.00000000E+00
  0.00000000E+00  0.00000000E+00  0.00000000E+00
  0.00000000E+00  0.00000000E+00  0.00000000E+00
  0.00000000E+00  0.00000000E+00  0.00000000E+00
  0.00000000E+00  0.00000000E+00  0.00000000E+00
  0.00000000E+00  0.00000000E+00  0.00000000E+00
  0.00000000E+00  0.00000000E+00  0.00000000E+00
  0.00000000E+00  0.00000000E+00  0.00000000E+00
  0.00000000E+00  0.00000000E+00  0.00000000E+00
  0.00000000E+00  0.00000000E+00  0.00000000E+00
  0.00000000E+00  0.00000000E+00  0.00000000E+00
  0.00000000E+00  0.00000000E+00  0.00000000E+00
  0.00000000E+00  0.00000000E+00  0.00000000E+00
  0.00000000E+00  0.00000000E+00  0.00000000E+00
  0.00000000E+00  0.00000000E+00  0.00000000E+00
  0.00000000E+00  0.00000000E+00  0.00000000E+00
  0.00000000E+00  0.00000000E+00  0.00000000E+00
  0.00000000E+00  0.00000000E+00  0.00000000E+00
  0.00000000E+00  0.00000000E+00  0.00000000E+00
  0.00000000E+00  0.00000000E+00  0.00000000E+00
  0.00000000E+00  0.00000000E+00  0.00000000E+00
  0.00000000E+00  0.00000000E+00  0.00000000E+00
  0.00000000E+00  0.00000000E+00  0.00000000E+00
  0.00000000E+00  0.00000000E+00  0.00000000E+00
  0.00000000E+00  0.00000000E+00  0.00000000E+00
  0.00000000E+00  0.00000000E+00  0.00000000E+00
  0.00000000E+00  0.00000000E+00  0.00000000E+00
  0.00000000E+00  0.00000000E+00  0.00000000E+00
  0.00000000E+00  0.00000000E+00  0.00000000E+00
  0.00000000E+00  0.00000000E+00  0.00000000E+00
  0.00000000E+00  0.00000000E+00  0.00000000E+00
  0.00000000E+00  0.00000000E+00  0.00000000E+00
  0.00000000E+00  0.00000000E+00  0.00000000E+00
  0.00000000E+00  0.00000000E+00  0.00000000E+00
  0.00000000E+00  0.00000000E+00  0.00000000E+00
  0.00000000E+00  0.00000000E+00  0.00000000E+00
  0.00000000E+00  0.00000000E+00  0.00000000E+00
  0.00000000E+00  0.00000000E+00  0.00000000E+00
  0.00000000E+00  0.00000000E+00  0.00000000E+00
  0.00000000E+00  0.00000000E+00  0.00000000E+00
  0.00000000E+00  0.00000000E+00  0.00000000E+00
  0.00000000E+00  0.00000000E+00  0.00000000E+00
  0.00000000E+00  0.00000000E+00  0.00000000E+00
  0.00000000E+00  0.00000000E+00  0.00000000E+00
  0.00000000E+00  0.00000000E+00  0.00000000E+00
  0.00000000E+00  0.00000000E+00  0.00000000E+00
  0.00000000E+00  0.00000000E+00  0.00000000E+00
  0.00000000E+00  0.00000000E+00  0.00000000E+00
  0.00000000E+00  0.00000000E+00  0.00000000E+00
  0.00000000E+00  0.00000000E+00  0.00000000E+00
  0.00000000E+00  0.00000000E+00  0.00000000E+00
  0.00000000E+00  0.00000000E+00  0.00000000E+00
  0.00000000E+00  0.00000000E+00  0.00000000E+00
  0.00000000E+00  0.00000000E+00  0.00000000E+00
  0.00000000E+00  0.00000000E+00  0.00000000E+00
  0.00000000E+00  0.00000000E+00  0.00000000E+00
  0.00000000E+00  0.00000000E+00  0.00000000E+00
  0.00000000E+00  0.00000000E+00  0.00000000E+00
  0.00000000E+00  0.00000000E+00  0.00000000E+00
  0.00000000E+00  0.00000000E+00  0.00000000E+00
  0.00000000E+00  0.00000000E+00  0.00000000E+00
  0.00000000E+00  0.00000000E+00  0.00000000E+00
  0.00000000E+00  0.00000000E+00  0.00000000E+00
  0.00000000E+00  0.00000000E+00  0.00000000E+00
  0.00000000E+00  0.00000000E+00  0.00000000E+00
  0.00000000E+00  0.00000000E+00  0.00000000E+00
  0.00000000E+00  0.00000000E+00  0.00000000E+00
  0.00000000E+00  0.00000000E+00  0.00000000E+00
  0.00000000E+00  0.00000000E+00  0.00000000E+00
  0.00000000E+00  0.00000000E+00  0.00000000E+00
  0.00000000E+00  0.00000000E+00  0.00000000E+00
  0.00000000E+00  0.00000000E+00  0.00000000E+00
  0.00000000E+00  0.00000000E+00  0.00000000E+00
  0.00000000E+00  0.00000000E+00  0.00000000E+00
  0.00000000E+00  0.00000000E+00  0.00000000E+00
  0.00000000E+00  0.00000000E+00  0.00000000E+00
  0.00000000E+00  0.00000000E+00  0.00000000E+00
  0.00000000E+00  0.00000000E+00  0.00000000E+00
  0.00000000E+00  0.00000000E+00  0.00000000E+00
  0.00000000E+00  0.00000000E+00  0.00000000E+00
  0.00000000E+00  0.00000000E+00  0.00000000E+00
  0.00000000E+00  0.00000000E+00  0.00000000E+00
  0.00000000E+00  0.00000000E+00  0.00000000E+00
  0.00000000E+00  0.00000000E+00  0.00000000E+00
  0.00000000E+00  0.00000000E+00  0.00000000E+00
  0.00000000E+00  0.00000000E+00  0.00000000E+00
  0.00000000E+00  0.00000000E+00  0.00000000E+00
  0.00000000E+00  0.00000000E+00  0.00000000E+00
  0.00000000E+00  0.00000000E+00  0.00000000E+00
  0.00000000E+00  0.00000000E+00  0.00000000E+00
  0.00000000E+00  0.00000000E+00  0.00000000E+00
  0.00000000E+00  0.00000000E+00  0.00000000E+00
  0.00000000E+00  0.00000000E+00  0.00000000E+00
  0.00000000E+00  0.00000000E+00  0.00000000E+00
  0.00000000E+00  0.00000000E+00  0.00000000E+00
  0.00000000E+00  0.00000000E+00  0.00000000E+00
  0.00000000E+00  0.00000000E+00  0.00000000E+00
  0.00000000E+00  0.00000000E+00  0.00000000E+00
  0.00000000E+00  0.00000000E+00  0.00000000E+00
  0.00000000E+00  0.00000000E+00  0.00000000E+00
  0.00000000E+00  0.00000000E+00  0.00000000E+00
  0.00000000E+00  0.00000000E+00  0.00000000E+00
  0.00000000E+00  0.00000000E+00  0.00000000E+00
  0.00000000E+00  0.00000000E+00  0.00000000E+00
  0.00000000E+00  0.00000000E+00  0.00000000E+00
  0.00000000E+00  0.00000000E+00  0.00000000E+00
  0.00000000E+00  0.00000000E+00  0.00000000E+00
  0.00000000E+00  0.00000000E+00  0.00000000E+00
  0.00000000E+00  0.00000000E+00  0.00000000E+00
  0.00000000E+00  0.00000000E+00  0.00000000E+00
  0.00000000E+00  0.00000000E+00  0.00000000E+00
  0.00000000E+00  0.00000000E+00  0.00000000E+00
  0.00000000E+00  0.00000000E+00  0.00000000E+00
  0.00000000E+00  0.00000000E+00  0.00000000E+00
  0.00000000E+00  0.00000000E+00  0.00000000E+00
  0.00000000E+00  0.00000000E+00  0.00000000E+00
  0.00000000E+00  0.00000000E+00  0.00000000E+00
  0.00000000E+00  0.00000000E+00  0.00000000E+00
  0.00000000E+00  0.00000000E+00  0.00000000E+00
  0.00000000E+00  0.00000000E+00  0.00000000E+00
  0.00000000E+00  0.00000000E+00  0.00000000E+00
  0.00000000E+00  0.00000000E+00  0.00000000E+00
  0.00000000E+00  0.00000000E+00  0.00000000E+00
  0.00000000E+00  0.00000000E+00  0.00000000E+00
  0.00000000E+00  0.00000000E+00  0.00000000E+00
  0.00000000E+00  0.00000000E+00  0.00000000E+00
  0.00000000E+00  0.00000000E+00  0.00000000E+00
  0.00000000E+00  0.00000000E+00  0.00000000E+00
  0.00000000E+00  0.00000000E+00  0.00000000E+00
  0.00000000E+00  0.00000000E+00  0.00000000E+00
  0.00000000E+00  0.00000000E+00  0.00000000E+00
  0.00000000E+00  0.00000000E+00  0.00000000E+00
  0.00000000E+00  0.00000000E+00  0.00000000E+00
  0.00000000E+00  0.00000000E+00  0.00000000E+00
  0.00000000E+00  0.00000000E+00  0.00000000E+00
  0.00000000E+00  0.00000000E+00  0.00000000E+00
  0.00000000E+00  0.00000000E+00  0.00000000E+00
  0.00000000E+00  0.00000000E+00  0.00000000E+00
  0.00000000E+00  0.00000000E+00  0.00000000E+00
  0.00000000E+00  0.00000000E+00  0.00000000E+00
  0.00000000E+00  0.00000000E+00  0.00000000E+00
  0.00000000E+00  0.00000000E+00  0.00000000E+00
  0.00000000E+00  0.00000000E+00  0.00000000E+00
  0.00000000E+00  0.00000000E+00  0.00000000E+00
  0.00000000E+00  0.00000000E+00  0.00000000E+00
  0.00000000E+00  0.00000000E+00  0.00000000E+00
  0.00000000E+00  0.00000000E+00  0.00000000E+00
  0.00000000E+00  0.00000000E+00  0.00000000E+00
  0.00000000E+00  0.00000000E+00  0.00000000E+00
  0.00000000E+00  0.00000000E+00  0.00000000E+00
  0.00000000E+00  0.00000000E+00  0.00000000E+00
  0.00000000E+00  0.00000000E+00  0.00000000E+00
  0.00000000E+00  0.00000000E+00  0.00000000E+00
  0.00000000E+00  0.00000000E+00  0.00000000E+00
  0.00000000E+00  0.00000000E+00  0.00000000E+00
  0.00000000E+00  0.00000000E+00  0.00000000E+00
  0.00000000E+00  0.00000000E+00  0.00000000E+00
  0.00000000E+00  0.00000000E+00  0.00000000E+00
  0.00000000E+00  0.00000000E+00  0.00000000E+00
  0.00000000E+00  0.00000000E+00  0.00000000E+00
  0.00000000E+00  0.00000000E+00  0.00000000E+00
  0.00000000E+00  0.00000000E+00  0.00000000E+00
  0.00000000E+00  0.00000000E+00  0.00000000E+00
  0.00000000E+00  0.00000000E+00  0.00000000E+00
  0.00000000E+00  0.00000000E+00  0.00000000E+00
  0.00000000E+00  0.00000000E+00  0.00000000E+00
  0.00000000E+00  0.00000000E+00  0.00000000E+00
  0.00000000E+00  0.00000000E+00  0.00000000E+00
  0.00000000E+00  0.00000000E+00  0.00000000E+00
  0.00000000E+00  0.00000000E+00  0.00000000E+00
  0.00000000E+00  0.00000000E+00  0.00000000E+00
  0.00000000E+00  0.00000000E+00  0.00000000E+00
  0.00000000E+00  0.00000000E+00  0.00000000E+00
  0.00000000E+00  0.00000000E+00  0.00000000E+00
  0.00000000E+00  0.00000000E+00  0.00000000E+00