La1 Mn1 O3
1.0
3.944370 0.000000 0.000000
0.000000 3.944370 0.000000
0.000000 0.000000 3.944370
La Mn O
1 1 3
direct
0.000000 0.000000 0.000000 La
0.500000 0.500000 0.500000 Mn
0.000000 0.500000 0.500000 O
0.500000 0.500000 0.000000 O
0.500000 0.000000 0.500000 O
