La1 Mn1 O3                              
   1.00000000000000     
    15.7565890352553879   -0.0000000000000000   -0.0000000000000000
    -0.0000000000000000   15.7565890352553879   -0.0000000000000000
    -0.0000000000000000   -0.0000000000000000   15.7513228911804486
   La   Mn   P    O 
    64    62     2   192
Direct
  0.0037421031654312  0.0037421031654312  0.0029960086618281
 -0.0011270174535767 -0.0011270174535767  0.2500000000000000
  0.0037421031654312  0.0037421031654312  0.4970039913381719
 -0.0025791541585376 -0.0025791541585376  0.7499999850000023
  0.0002609677661716  0.2513881274516419 -0.0004911180867277
  0.0004445864959568  0.2501563572445627  0.2500000000000000
  0.0002609677661716  0.2513881274516419  0.5004911180867277
  0.0002696383621797  0.2512349592831177  0.7499999850000023
  0.0002609677661716  0.4986118725483581 -0.0004911180867277
  0.0004445864959568  0.4998436427554373  0.2500000000000000
  0.0002609677661716  0.4986118725483581  0.5004911180867277
  0.0002696383621797  0.4987650407168823  0.7499999850000023
  0.0037421031654312  0.7462578818345710  0.0029960086618281
 -0.0011270174535767  0.7511270024535790  0.2500000000000000
  0.0037421031654312  0.7462578818345710  0.4970039913381719
 -0.0025791541585376  0.7525791391585399  0.7499999850000023
  0.2513881274516419  0.0002609677661716 -0.0004911180867277
  0.2501563572445627  0.0004445864959568  0.2500000000000000
  0.2513881274516419  0.0002609677661716  0.5004911180867277
  0.2512349592831177  0.0002696383621797  0.7499999850000023
  0.2502047441478039  0.2502047441478039  0.0000749573437607
  0.2502562376507955  0.2502562376507955  0.2500000000000000
  0.2502047441478039  0.2502047441478039  0.4999250426562391
  0.2496686396451087  0.2496686396451087  0.7499999850000023
  0.2502047441478039  0.4997952558521961  0.0000749573437607
  0.2502562376507955  0.4997437623492045  0.2500000000000000
  0.2502047441478039  0.4997952558521961  0.4999250426562391
  0.2496686396451087  0.5003313603548912  0.7499999850000023
  0.2513881274516419  0.7497390172338307 -0.0004911180867277
  0.2501563572445627  0.7495553985040453  0.2500000000000000
  0.2513881274516419  0.7497390172338307  0.5004911180867277
  0.2512349592831177  0.7497303466378226  0.7499999850000023
  0.4986118725483581  0.0002609677661716 -0.0004911180867277
  0.4998436427554373  0.0004445864959568  0.2500000000000000
  0.4986118725483581  0.0002609677661716  0.5004911180867277
  0.4987650407168823  0.0002696383621797  0.7499999850000023
  0.4997952558521961  0.2502047441478039  0.0000749573437607
  0.4997437623492045  0.2502562376507955  0.2500000000000000
  0.4997952558521961  0.2502047441478039  0.4999250426562391
  0.5003313603548912  0.2496686396451087  0.7499999850000023
  0.4997952558521961  0.4997952558521961  0.0000749573437607
  0.4997437623492045  0.4997437623492045  0.2500000000000000
  0.4997952558521961  0.4997952558521961  0.4999250426562391
  0.5003313603548912  0.5003313603548912  0.7499999850000023
  0.4986118725483581  0.7497390172338307 -0.0004911180867277
  0.4998436427554373  0.7495553985040453  0.2500000000000000
  0.4986118725483581  0.7497390172338307  0.5004911180867277
  0.4987650407168823  0.7497303466378226  0.7499999850000023
  0.7462578818345710  0.0037421031654312  0.0029960086618281
  0.7511270024535790 -0.0011270174535767  0.2500000000000000
  0.7462578818345710  0.0037421031654312  0.4970039913381719
  0.7525791391585399 -0.0025791541585376  0.7499999850000023
  0.7497390172338307  0.2513881274516419 -0.0004911180867277
  0.7495553985040453  0.2501563572445627  0.2500000000000000
  0.7497390172338307  0.2513881274516419  0.5004911180867277
  0.7497303466378226  0.2512349592831177  0.7499999850000023
  0.7497390172338307  0.4986118725483581 -0.0004911180867277
  0.7495553985040453  0.4998436427554373  0.2500000000000000
  0.7497390172338307  0.4986118725483581  0.5004911180867277
  0.7497303466378226  0.4987650407168823  0.7499999850000023
  0.7462578818345710  0.7462578818345710  0.0029960086618281
  0.7511270024535790  0.7511270024535790  0.2500000000000000
  0.7462578818345710  0.7462578818345710  0.4970039913381719
  0.7525791391585399  0.7525791391585399  0.7499999850000023
  0.1250483923107964  0.1250483923107964  0.1251304256938539
  0.1250483923107964  0.1250483923107964  0.3748695663061454
  0.1241914233798479  0.1241914233798479  0.6254788920501425
  0.1241914233798479  0.1241914233798479  0.8745210769498585
  0.1248342625224600  0.3749999919999993  0.1250200214877204
  0.1248342625224600  0.3749999919999993  0.3749799705122790
  0.1248577463228624  0.3749999919999993  0.6249364596363799
  0.1248577463228624  0.3749999919999993  0.8750635093636211
  0.1250483923107964  0.6249515846892053  0.1251304256938539
  0.1250483923107964  0.6249515846892053  0.3748695663061454
  0.1241914233798479  0.6258085536201538  0.6254788920501425
  0.1241914233798479  0.6258085536201538  0.8745210769498585
  0.1243099183655808  0.8749999919999993  0.1243330739703703
  0.1243099183655808  0.8749999919999993  0.3756669180296290
  0.1223914725097139  0.8749999919999993  0.6253300657749793
  0.1223914725097139  0.8749999919999993  0.8746699032250217
  0.3749999919999993  0.1248342625224600  0.1250200214877204
  0.3749999919999993  0.1248342625224600  0.3749799705122790
  0.3749999919999993  0.1248577463228624  0.6249364596363799
  0.3749999919999993  0.1248577463228624  0.8750635093636211
  0.3749999919999993  0.3749999919999993  0.1248275967175001
  0.3749999919999993  0.3749999919999993  0.3751723952824992
  0.3749999919999993  0.3749999919999993  0.6253256064319594
  0.3749999919999993  0.3749999919999993  0.8746743625680415
  0.3749999919999993  0.6251657144775419  0.1250200214877204
  0.3749999919999993  0.6251657144775419  0.3749799705122790
  0.3749999919999993  0.6251422306771393  0.6249364596363799
  0.3749999919999993  0.6251422306771393  0.8750635093636211
  0.3749999919999993  0.8749999919999993  0.1249480278831776
  0.3749999919999993  0.8749999919999993  0.3750519641168217
  0.3749999919999993  0.8749999919999993  0.6255146883402669
  0.3749999919999993  0.8749999919999993  0.8744852806597341
  0.6249515846892053  0.1250483923107964  0.1251304256938539
  0.6249515846892053  0.1250483923107964  0.3748695663061454
  0.6258085536201538  0.1241914233798479  0.6254788920501425
  0.6258085536201538  0.1241914233798479  0.8745210769498585
  0.6251657144775419  0.3749999919999993  0.1250200214877204
  0.6251657144775419  0.3749999919999993  0.3749799705122790
  0.6251422306771393  0.3749999919999993  0.6249364596363799
  0.6251422306771393  0.3749999919999993  0.8750635093636211
  0.6249515846892053  0.6249515846892053  0.1251304256938539
  0.6249515846892053  0.6249515846892053  0.3748695663061454
  0.6258085536201538  0.6258085536201538  0.6254788920501425
  0.6258085536201538  0.6258085536201538  0.8745210769498585
  0.6256900586344208  0.8749999919999993  0.1243330739703703
  0.6256900586344208  0.8749999919999993  0.3756669180296290
  0.6276085044902879  0.8749999919999993  0.6253300657749793
  0.6276085044902879  0.8749999919999993  0.8746699032250217
  0.8749999919999993  0.1243099183655808  0.1243330739703703
  0.8749999919999993  0.1243099183655808  0.3756669180296290
  0.8749999919999993  0.1223914725097139  0.6253300657749793
  0.8749999919999993  0.1223914725097139  0.8746699032250217
  0.8749999919999993  0.3749999919999993  0.1249480278831776
  0.8749999919999993  0.3749999919999993  0.3750519641168217
  0.8749999919999993  0.3749999919999993  0.6255146883402669
  0.8749999919999993  0.3749999919999993  0.8744852806597341
  0.8749999919999993  0.6256900586344208  0.1243330739703703
  0.8749999919999993  0.6256900586344208  0.3756669180296290
  0.8749999919999993  0.6276085044902879  0.6253300657749793
  0.8749999919999993  0.6276085044902879  0.8746699032250217
  0.8749999919999993  0.8749999919999993  0.1221349846417547
  0.8749999919999993  0.8749999919999993  0.3778650073582446
  0.8749999919999993  0.8749999919999993  0.6211300704671391
  0.8749999919999993  0.8749999919999993  0.8788698985328619
 -0.0002569046328888  0.1240729545944330  0.1243292205536665
 -0.0002569046328888  0.1240729545944330  0.3756707714463329
 -0.0021816312907768  0.1218374098435999  0.6244884377080369
 -0.0021816312907768  0.1218374098435999  0.8755115312919641
  0.0000767276560541  0.3749999919999993  0.1246031644420319
  0.0000767276560541  0.3749999919999993  0.3753968275579675
  0.0000056799647315  0.3749999919999993  0.6251449880814539
  0.0000056799647315  0.3749999919999993  0.8748549809185471
 -0.0002569046328888  0.6259270224055684  0.1243292205536665
 -0.0002569046328888  0.6259270224055684  0.3756707714463329
 -0.0021816312907768  0.6281625671564018  0.6244884377080369
 -0.0021816312907768  0.6281625671564018  0.8755115312919641
 -0.0012507202645137  0.8749999919999993  0.1225305347388518
 -0.0012507202645137  0.8749999919999993  0.3774694572611476
 -0.0173714493567570  0.8749999919999993  0.6294310736561362
 -0.0173714493567570  0.8749999919999993  0.8705688953438648
  0.2499405015836894  0.1245760569713872  0.1248908332263581
  0.2499405015836894  0.1245760569713872  0.3751091587736413
  0.2503817557507370  0.1236145874201720  0.6245582011810796
  0.2503817557507370  0.1236145874201720  0.8754417678189214
  0.2495817640186944  0.3749999919999993  0.1247038206197941
  0.2495817640186944  0.3749999919999993  0.3752961713802053
  0.2497149965060673  0.3749999919999993  0.6250886603776271
  0.2497149965060673  0.3749999919999993  0.8749113086223739
  0.2499405015836894  0.6254239200286147  0.1248908332263581
  0.2499405015836894  0.6254239200286147  0.3751091587736413
  0.2503817557507370  0.6263853895798298  0.6245582011810796
  0.2503817557507370  0.6263853895798298  0.8754417678189214
  0.2498050058337822  0.8749999919999993  0.1241081227194217
  0.2498050058337822  0.8749999919999993  0.3758918692805777
  0.2524537552826309  0.8749999919999993  0.6270214601700658
  0.2524537552826309  0.8749999919999993  0.8729785088299352
  0.5000594984163106  0.1245760569713872  0.1248908332263581
  0.5000594984163106  0.1245760569713872  0.3751091587736413
  0.4996182442492630  0.1236145874201720  0.6245582011810796
  0.4996182442492630  0.1236145874201720  0.8754417678189214
  0.5004182359813056  0.3749999919999993  0.1247038206197941
  0.5004182359813056  0.3749999919999993  0.3752961713802053
  0.5002850034939326  0.3749999919999993  0.6250886603776271
  0.5002850034939326  0.3749999919999993  0.8749113086223739
  0.5000594984163106  0.6254239200286147  0.1248908332263581
  0.5000594984163106  0.6254239200286147  0.3751091587736413
  0.4996182442492630  0.6263853895798298  0.6245582011810796
  0.4996182442492630  0.6263853895798298  0.8754417678189214
  0.5001949941662178  0.8749999919999993  0.1241081227194217
  0.5001949941662178  0.8749999919999993  0.3758918692805777
  0.4975462447173691  0.8749999919999993  0.6270214601700658
  0.4975462447173691  0.8749999919999993  0.8729785088299352
  0.7502568896328914  0.1240729545944330  0.1243292205536665
  0.7502568896328914  0.1240729545944330  0.3756707714463329
  0.7521816162907792  0.1218374098435999  0.6244884377080369
  0.7521816162907792  0.1218374098435999  0.8755115312919641
  0.7499232573439484  0.3749999919999993  0.1246031644420319
  0.7499232573439484  0.3749999919999993  0.3753968275579675
  0.7499943050352705  0.3749999919999993  0.6251449880814539
  0.7499943050352705  0.3749999919999993  0.8748549809185471
  0.7502568896328914  0.6259270224055684  0.1243292205536665
  0.7502568896328914  0.6259270224055684  0.3756707714463329
  0.7521816162907792  0.6281625671564018  0.6244884377080369
  0.7521816162907792  0.6281625671564018  0.8755115312919641
  0.7512507052645162  0.8749999919999993  0.1225305347388518
  0.7512507052645162  0.8749999919999993  0.3774694572611476
  0.7673714343567590  0.8749999919999993  0.6294310736561362
  0.7673714343567589  0.8749999919999993  0.8705688953438648
  0.1241612326423802  0.1241612326423802 -0.0003799617407214
  0.1248864460652878  0.1248864460652878  0.2500000000000000
  0.1241612326423802  0.1241612326423802  0.5003799617407213
  0.1265003046256748  0.1265003046256748  0.7499999850000023
  0.1239918013116793  0.3749999919999993  0.0001264710297356
  0.1243747633824895  0.3749999919999993  0.2500000000000000
  0.1239918013116793  0.3749999919999993  0.4998735289702644
  0.1236120540048221  0.3749999919999993  0.7499999850000023
  0.1241612326423802  0.6258387443576218 -0.0003799617407214
  0.1248864460652878  0.6251135309347141  0.2500000000000000
  0.1241612326423802  0.6258387443576218  0.5003799617407213
  0.1265003046256748  0.6234996723743269  0.7499999850000023
  0.1208289765540654  0.8749999919999993 -0.0016966817751358
  0.1223814372974916  0.8749999919999993  0.2500000000000000
  0.1208289765540654  0.8749999919999993  0.5016966817751356
  0.1158006648943574  0.8749999919999993  0.7499999850000023
  0.3749999919999993  0.1239918013116793  0.0001264710297356
  0.3749999919999993  0.1243747633824895  0.2500000000000000
  0.3749999919999993  0.1239918013116793  0.4998735289702644
  0.3749999919999993  0.1236120540048221  0.7499999850000023
  0.3749999919999993  0.3749999919999993 -0.0003736297892941
  0.3749999919999993  0.3749999919999993  0.2500000000000000
  0.3749999919999993  0.3749999919999993  0.5003736297892941
  0.3749999919999993  0.3749999919999993  0.7499999850000023
  0.3749999919999993  0.6260081756883226  0.0001264710297356
  0.3749999919999993  0.6256252136175122  0.2500000000000000
  0.3749999919999993  0.6260081756883226  0.4998735289702644
  0.3749999919999993  0.6263879229951795  0.7499999850000023
  0.3749999919999993  0.8749999919999993 -0.0002379022242808
  0.3749999919999993  0.8749999919999993  0.2500000000000000
  0.3749999919999993  0.8749999919999993  0.5002379022242807
  0.3749999919999993  0.8749999919999993  0.7499999850000023
  0.6258387443576218  0.1241612326423802 -0.0003799617407214
  0.6251135309347141  0.1248864460652878  0.2500000000000000
  0.6258387443576218  0.1241612326423802  0.5003799617407213
  0.6234996723743269  0.1265003046256748  0.7499999850000023
  0.6260081756883226  0.3749999919999993  0.0001264710297356
  0.6256252136175122  0.3749999919999993  0.2500000000000000
  0.6260081756883226  0.3749999919999993  0.4998735289702644
  0.6263879229951795  0.3749999919999993  0.7499999850000023
  0.6258387443576218  0.6258387443576218 -0.0003799617407214
  0.6251135309347141  0.6251135309347141  0.2500000000000000
  0.6258387443576218  0.6258387443576218  0.5003799617407213
  0.6234996723743269  0.6234996723743269  0.7499999850000023
  0.6291710004459364  0.8749999919999993 -0.0016966817751358
  0.6276185397025100  0.8749999919999993  0.2500000000000000
  0.6291710004459364  0.8749999919999993  0.5016966817751356
  0.6341993121056443  0.8749999919999993  0.7499999850000023
  0.8749999919999993  0.1208289765540654 -0.0016966817751358
  0.8749999919999993  0.1223814372974916  0.2500000000000000
  0.8749999919999993  0.1208289765540654  0.5016966817751356
  0.8749999919999993  0.1158006648943574  0.7499999850000023
  0.8749999919999993  0.3749999919999993 -0.0002379022242808
  0.8749999919999993  0.3749999919999993  0.2500000000000000
  0.8749999919999993  0.3749999919999993  0.5002379022242807
  0.8749999919999993  0.3749999919999993  0.7499999850000023
  0.8749999919999993  0.6291710004459364 -0.0016966817751358
  0.8749999919999993  0.6276185397025100  0.2500000000000000
  0.8749999919999993  0.6291710004459364  0.5016966817751356
  0.8749999919999993  0.6341993121056443  0.7499999850000023
  0.8749999919999993  0.8749999919999993 -0.0150581463389792
  0.8749999919999993  0.8749999919999993  0.2500000000000000
  0.8749999919999993  0.8749999919999993  0.5150581463389793
  0.8749999919999993  0.8749999919999993  0.7499999850000023
  0.1240729545944330 -0.0002569046328888  0.1243292205536665
  0.1240729545944330 -0.0002569046328888  0.3756707714463329
  0.1218374098435999 -0.0021816312907768  0.6244884377080369
  0.1218374098435999 -0.0021816312907768  0.8755115312919641
  0.1245760569713872  0.2499405015836894  0.1248908332263581
  0.1245760569713872  0.2499405015836894  0.3751091587736413
  0.1236145874201720  0.2503817557507370  0.6245582011810796
  0.1236145874201720  0.2503817557507370  0.8754417678189214
  0.1245760569713872  0.5000594984163106  0.1248908332263581
  0.1245760569713872  0.5000594984163106  0.3751091587736413
  0.1236145874201720  0.4996182442492630  0.6245582011810796
  0.1236145874201720  0.4996182442492630  0.8754417678189214
  0.1240729545944330  0.7502568896328914  0.1243292205536665
  0.1240729545944330  0.7502568896328914  0.3756707714463329
  0.1218374098435999  0.7521816162907792  0.6244884377080369
  0.1218374098435999  0.7521816162907792  0.8755115312919641
  0.3749999919999993  0.0000767276560541  0.1246031644420319
  0.3749999919999993  0.0000767276560541  0.3753968275579675
  0.3749999919999993  0.0000056799647315  0.6251449880814539
  0.3749999919999993  0.0000056799647315  0.8748549809185471
  0.3749999919999993  0.2495817640186944  0.1247038206197941
  0.3749999919999993  0.2495817640186944  0.3752961713802053
  0.3749999919999993  0.2497149965060673  0.6250886603776271
  0.3749999919999993  0.2497149965060673  0.8749113086223739
  0.3749999919999993  0.5004182359813056  0.1247038206197941
  0.3749999919999993  0.5004182359813056  0.3752961713802053
  0.3749999919999993  0.5002850034939326  0.6250886603776271
  0.3749999919999993  0.5002850034939326  0.8749113086223739
  0.3749999919999993  0.7499232573439484  0.1246031644420319
  0.3749999919999993  0.7499232573439484  0.3753968275579675
  0.3749999919999993  0.7499943050352705  0.6251449880814539
  0.3749999919999993  0.7499943050352705  0.8748549809185471
  0.6259270224055684 -0.0002569046328888  0.1243292205536665
  0.6259270224055684 -0.0002569046328888  0.3756707714463329
  0.6281625671564018 -0.0021816312907768  0.6244884377080369
  0.6281625671564018 -0.0021816312907768  0.8755115312919641
  0.6254239200286147  0.2499405015836894  0.1248908332263581
  0.6254239200286147  0.2499405015836894  0.3751091587736413
  0.6263853895798298  0.2503817557507370  0.6245582011810796
  0.6263853895798298  0.2503817557507370  0.8754417678189214
  0.6254239200286147  0.5000594984163106  0.1248908332263581
  0.6254239200286147  0.5000594984163106  0.3751091587736413
  0.6263853895798298  0.4996182442492630  0.6245582011810796
  0.6263853895798298  0.4996182442492630  0.8754417678189214
  0.6259270224055684  0.7502568896328914  0.1243292205536665
  0.6259270224055684  0.7502568896328914  0.3756707714463329
  0.6281625671564018  0.7521816162907792  0.6244884377080369
  0.6281625671564018  0.7521816162907792  0.8755115312919641
  0.8749999919999993 -0.0012507202645137  0.1225305347388518
  0.8749999919999993 -0.0012507202645137  0.3774694572611476
  0.8749999919999993 -0.0173714493567570  0.6294310736561362
  0.8749999919999993 -0.0173714493567570  0.8705688953438648
  0.8749999919999993  0.2498050058337822  0.1241081227194217
  0.8749999919999993  0.2498050058337822  0.3758918692805777
  0.8749999919999993  0.2524537552826309  0.6270214601700658
  0.8749999919999993  0.2524537552826309  0.8729785088299352
  0.8749999919999993  0.5001949941662178  0.1241081227194217
  0.8749999919999993  0.5001949941662178  0.3758918692805777
  0.8749999919999993  0.4975462447173691  0.6270214601700658
  0.8749999919999993  0.4975462447173691  0.8729785088299352
  0.8749999919999993  0.7512507052645162  0.1225305347388518
  0.8749999919999993  0.7512507052645162  0.3774694572611476
  0.8749999919999993  0.7673714343567589  0.6294310736561362
  0.8749999919999993  0.7673714343567589  0.8705688953438648
 
  0.00000000E+00  0.00000000E+00  0.00000000E+00
  0.00000000E+00  0.00000000E+00  0.00000000E+00
  0.00000000E+00  0.00000000E+00  0.00000000E+00
  0.00000000E+00  0.00000000E+00  0.00000000E+00
  0.00000000E+00  0.00000000E+00  0.00000000E+00
  0.00000000E+00  0.00000000E+00  0.00000000E+00
  0.00000000E+00  0.00000000E+00  0.00000000E+00
  0.00000000E+00  0.00000000E+00  0.00000000E+00
  0.00000000E+00  0.00000000E+00  0.00000000E+00
  0.00000000E+00  0.00000000E+00  0.00000000E+00
  0.00000000E+00  0.00000000E+00  0.00000000E+00
  0.00000000E+00  0.00000000E+00  0.00000000E+00
  0.00000000E+00  0.00000000E+00  0.00000000E+00
  0.00000000E+00  0.00000000E+00  0.00000000E+00
  0.00000000E+00  0.00000000E+00  0.00000000E+00
  0.00000000E+00  0.00000000E+00  0.00000000E+00
  0.00000000E+00  0.00000000E+00  0.00000000E+00
  0.00000000E+00  0.00000000E+00  0.00000000E+00
  0.00000000E+00  0.00000000E+00  0.00000000E+00
  0.00000000E+00  0.00000000E+00  0.00000000E+00
  0.00000000E+00  0.00000000E+00  0.00000000E+00
  0.00000000E+00  0.00000000E+00  0.00000000E+00
  0.00000000E+00  0.00000000E+00  0.00000000E+00
  0.00000000E+00  0.00000000E+00  0.00000000E+00
  0.00000000E+00  0.00000000E+00  0.00000000E+00
  0.00000000E+00  0.00000000E+00  0.00000000E+00
  0.00000000E+00  0.00000000E+00  0.00000000E+00
  0.00000000E+00  0.00000000E+00  0.00000000E+00
  0.00000000E+00  0.00000000E+00  0.00000000E+00
  0.00000000E+00  0.00000000E+00  0.00000000E+00
  0.00000000E+00  0.00000000E+00  0.00000000E+00
  0.00000000E+00  0.00000000E+00  0.00000000E+00
  0.00000000E+00  0.00000000E+00  0.00000000E+00
  0.00000000E+00  0.00000000E+00  0.00000000E+00
  0.00000000E+00  0.00000000E+00  0.00000000E+00
  0.00000000E+00  0.00000000E+00  0.00000000E+00
  0.00000000E+00  0.00000000E+00  0.00000000E+00
  0.00000000E+00  0.00000000E+00  0.00000000E+00
  0.00000000E+00  0.00000000E+00  0.00000000E+00
  0.00000000E+00  0.00000000E+00  0.00000000E+00
  0.00000000E+00  0.00000000E+00  0.00000000E+00
  0.00000000E+00  0.00000000E+00  0.00000000E+00
  0.00000000E+00  0.00000000E+00  0.00000000E+00
  0.00000000E+00  0.00000000E+00  0.00000000E+00
  0.00000000E+00  0.00000000E+00  0.00000000E+00
  0.00000000E+00  0.00000000E+00  0.00000000E+00
  0.00000000E+00  0.00000000E+00  0.00000000E+00
  0.00000000E+00  0.00000000E+00  0.00000000E+00
  0.00000000E+00  0.00000000E+00  0.00000000E+00
  0.00000000E+00  0.00000000E+00  0.00000000E+00
  0.00000000E+00  0.00000000E+00  0.00000000E+00
  0.00000000E+00  0.00000000E+00  0.00000000E+00
  0.00000000E+00  0.00000000E+00  0.00000000E+00
  0.00000000E+00  0.00000000E+00  0.00000000E+00
  0.00000000E+00  0.00000000E+00  0.00000000E+00
  0.00000000E+00  0.00000000E+00  0.00000000E+00
  0.00000000E+00  0.00000000E+00  0.00000000E+00
  0.00000000E+00  0.00000000E+00  0.00000000E+00
  0.00000000E+00  0.00000000E+00  0.00000000E+00
  0.00000000E+00  0.00000000E+00  0.00000000E+00
  0.00000000E+00  0.00000000E+00  0.00000000E+00
  0.00000000E+00  0.00000000E+00  0.00000000E+00
  0.00000000E+00  0.00000000E+00  0.00000000E+00
  0.00000000E+00  0.00000000E+00  0.00000000E+00
  0.00000000E+00  0.00000000E+00  0.00000000E+00
  0.00000000E+00  0.00000000E+00  0.00000000E+00
  0.00000000E+00  0.00000000E+00  0.00000000E+00
  0.00000000E+00  0.00000000E+00  0.00000000E+00
  0.00000000E+00  0.00000000E+00  0.00000000E+00
  0.00000000E+00  0.00000000E+00  0.00000000E+00
  0.00000000E+00  0.00000000E+00  0.00000000E+00
  0.00000000E+00  0.00000000E+00  0.00000000E+00
  0.00000000E+00  0.00000000E+00  0.00000000E+00
  0.00000000E+00  0.00000000E+00  0.00000000E+00
  0.00000000E+00  0.00000000E+00  0.00000000E+00
  0.00000000E+00  0.00000000E+00  0.00000000E+00
  0.00000000E+00  0.00000000E+00  0.00000000E+00
  0.00000000E+00  0.00000000E+00  0.00000000E+00
  0.00000000E+00  0.00000000E+00  0.00000000E+00
  0.00000000E+00  0.00000000E+00  0.00000000E+00
  0.00000000E+00  0.00000000E+00  0.00000000E+00
  0.00000000E+00  0.00000000E+00  0.00000000E+00
  0.00000000E+00  0.00000000E+00  0.00000000E+00
  0.00000000E+00  0.00000000E+00  0.00000000E+00
  0.00000000E+00  0.00000000E+00  0.00000000E+00
  0.00000000E+00  0.00000000E+00  0.00000000E+00
  0.00000000E+00  0.00000000E+00  0.00000000E+00
  0.00000000E+00  0.00000000E+00  0.00000000E+00
  0.00000000E+00  0.00000000E+00  0.00000000E+00
  0.00000000E+00  0.00000000E+00  0.00000000E+00
  0.00000000E+00  0.00000000E+00  0.00000000E+00
  0.00000000E+00  0.00000000E+00  0.00000000E+00
  0.00000000E+00  0.00000000E+00  0.00000000E+00
  0.00000000E+00  0.00000000E+00  0.00000000E+00
  0.00000000E+00  0.00000000E+00  0.00000000E+00
  0.00000000E+00  0.00000000E+00  0.00000000E+00
  0.00000000E+00  0.00000000E+00  0.00000000E+00
  0.00000000E+00  0.00000000E+00  0.00000000E+00
  0.00000000E+00  0.00000000E+00  0.00000000E+00
  0.00000000E+00  0.00000000E+00  0.00000000E+00
  0.00000000E+00  0.00000000E+00  0.00000000E+00
  0.00000000E+00  0.00000000E+00  0.00000000E+00
  0.00000000E+00  0.00000000E+00  0.00000000E+00
  0.00000000E+00  0.00000000E+00  0.00000000E+00
  0.00000000E+00  0.00000000E+00  0.00000000E+00
  0.00000000E+00  0.00000000E+00  0.00000000E+00
  0.00000000E+00  0.00000000E+00  0.00000000E+00
  0.00000000E+00  0.00000000E+00  0.00000000E+00
  0.00000000E+00  0.00000000E+00  0.00000000E+00
  0.00000000E+00  0.00000000E+00  0.00000000E+00
  0.00000000E+00  0.00000000E+00  0.00000000E+00
  0.00000000E+00  0.00000000E+00  0.00000000E+00
  0.00000000E+00  0.00000000E+00  0.00000000E+00
  0.00000000E+00  0.00000000E+00  0.00000000E+00
  0.00000000E+00  0.00000000E+00  0.00000000E+00
  0.00000000E+00  0.00000000E+00  0.00000000E+00
  0.00000000E+00  0.00000000E+00  0.00000000E+00
  0.00000000E+00  0.00000000E+00  0.00000000E+00
  0.00000000E+00  0.00000000E+00  0.00000000E+00
  0.00000000E+00  0.00000000E+00  0.00000000E+00
  0.00000000E+00  0.00000000E+00  0.00000000E+00
  0.00000000E+00  0.00000000E+00  0.00000000E+00
  0.00000000E+00  0.00000000E+00  0.00000000E+00
  0.00000000E+00  0.00000000E+00  0.00000000E+00
  0.00000000E+00  0.00000000E+00  0.00000000E+00
  0.00000000E+00  0.00000000E+00  0.00000000E+00
  0.00000000E+00  0.00000000E+00  0.00000000E+00
  0.00000000E+00  0.00000000E+00  0.00000000E+00
  0.00000000E+00  0.00000000E+00  0.00000000E+00
  0.00000000E+00  0.00000000E+00  0.00000000E+00
  0.00000000E+00  0.00000000E+00  0.00000000E+00
  0.00000000E+00  0.00000000E+00  0.00000000E+00
  0.00000000E+00  0.00000000E+00  0.00000000E+00
  0.00000000E+00  0.00000000E+00  0.00000000E+00
  0.00000000E+00  0.00000000E+00  0.00000000E+00
  0.00000000E+00  0.00000000E+00  0.00000000E+00
  0.00000000E+00  0.00000000E+00  0.00000000E+00
  0.00000000E+00  0.00000000E+00  0.00000000E+00
  0.00000000E+00  0.00000000E+00  0.00000000E+00
  0.00000000E+00  0.00000000E+00  0.00000000E+00
  0.00000000E+00  0.00000000E+00  0.00000000E+00
  0.00000000E+00  0.00000000E+00  0.00000000E+00
  0.00000000E+00  0.00000000E+00  0.00000000E+00
  0.00000000E+00  0.00000000E+00  0.00000000E+00
  0.00000000E+00  0.00000000E+00  0.00000000E+00
  0.00000000E+00  0.00000000E+00  0.00000000E+00
  0.00000000E+00  0.00000000E+00  0.00000000E+00
  0.00000000E+00  0.00000000E+00  0.00000000E+00
  0.00000000E+00  0.00000000E+00  0.00000000E+00
  0.00000000E+00  0.00000000E+00  0.00000000E+00
  0.00000000E+00  0.00000000E+00  0.00000000E+00
  0.00000000E+00  0.00000000E+00  0.00000000E+00
  0.00000000E+00  0.00000000E+00  0.00000000E+00
  0.00000000E+00  0.00000000E+00  0.00000000E+00
  0.00000000E+00  0.00000000E+00  0.00000000E+00
  0.00000000E+00  0.00000000E+00  0.00000000E+00
  0.00000000E+00  0.00000000E+00  0.00000000E+00
  0.00000000E+00  0.00000000E+00  0.00000000E+00
  0.00000000E+00  0.00000000E+00  0.00000000E+00
  0.00000000E+00  0.00000000E+00  0.00000000E+00
  0.00000000E+00  0.00000000E+00  0.00000000E+00
  0.00000000E+00  0.00000000E+00  0.00000000E+00
  0.00000000E+00  0.00000000E+00  0.00000000E+00
  0.00000000E+00  0.00000000E+00  0.00000000E+00
  0.00000000E+00  0.00000000E+00  0.00000000E+00
  0.00000000E+00  0.00000000E+00  0.00000000E+00
  0.00000000E+00  0.00000000E+00  0.00000000E+00
  0.00000000E+00  0.00000000E+00  0.00000000E+00
  0.00000000E+00  0.00000000E+00  0.00000000E+00
  0.00000000E+00  0.00000000E+00  0.00000000E+00
  0.00000000E+00  0.00000000E+00  0.00000000E+00
  0.00000000E+00  0.00000000E+00  0.00000000E+00
  0.00000000E+00  0.00000000E+00  0.00000000E+00
  0.00000000E+00  0.00000000E+00  0.00000000E+00
  0.00000000E+00  0.00000000E+00  0.00000000E+00
  0.00000000E+00  0.00000000E+00  0.00000000E+00
  0.00000000E+00  0.00000000E+00  0.00000000E+00
  0.00000000E+00  0.00000000E+00  0.00000000E+00
  0.00000000E+00  0.00000000E+00  0.00000000E+00
  0.00000000E+00  0.00000000E+00  0.00000000E+00
  0.00000000E+00  0.00000000E+00  0.00000000E+00
  0.00000000E+00  0.00000000E+00  0.00000000E+00
  0.00000000E+00  0.00000000E+00  0.00000000E+00
  0.00000000E+00  0.00000000E+00  0.00000000E+00
  0.00000000E+00  0.00000000E+00  0.00000000E+00
  0.00000000E+00  0.00000000E+00  0.00000000E+00
  0.00000000E+00  0.00000000E+00  0.00000000E+00
  0.00000000E+00  0.00000000E+00  0.00000000E+00
  0.00000000E+00  0.00000000E+00  0.00000000E+00
  0.00000000E+00  0.00000000E+00  0.00000000E+00
  0.00000000E+00  0.00000000E+00  0.00000000E+00
  0.00000000E+00  0.00000000E+00  0.00000000E+00
  0.00000000E+00  0.00000000E+00  0.00000000E+00
  0.00000000E+00  0.00000000E+00  0.00000000E+00
  0.00000000E+00  0.00000000E+00  0.00000000E+00
  0.00000000E+00  0.00000000E+00  0.00000000E+00
  0.00000000E+00  0.00000000E+00  0.00000000E+00
  0.00000000E+00  0.00000000E+00  0.00000000E+00
  0.00000000E+00  0.00000000E+00  0.00000000E+00
  0.00000000E+00  0.00000000E+00  0.00000000E+00
  0.00000000E+00  0.00000000E+00  0.00000000E+00
  0.00000000E+00  0.00000000E+00  0.00000000E+00
  0.00000000E+00  0.00000000E+00  0.00000000E+00
  0.00000000E+00  0.00000000E+00  0.00000000E+00
  0.00000000E+00  0.00000000E+00  0.00000000E+00
  0.00000000E+00  0.00000000E+00  0.00000000E+00
  0.00000000E+00  0.00000000E+00  0.00000000E+00