La1 Mn1 O3                              
   1.00000000000000     
    15.7522296852857764   -0.0000000000000000    0.0000000000000000
    -0.0000000000000000   15.7522296852857764    0.0000000000000000
    -0.0000000000000000   -0.0000000000000000   15.7522296852857764
   La   Mn   P    O 
    64    63     1   192
Direct
  0.0010672230698032  0.0010672230698032  0.0010672230698032
 -0.0001890218696796 -0.0001890218696796  0.2506582733480565
 -0.0001890218696796 -0.0001890218696796  0.4993417266519435
  0.0010672230698032  0.0010672230698032  0.7489327619301991
 -0.0001890218696796  0.2506582733480565 -0.0001890218696796
  0.0001845988944290  0.2500346211463559  0.2500346211463559
  0.0001845988944290  0.2500346211463559  0.4999653788536441
 -0.0001890218696796  0.2506582733480565  0.7501890068696819
 -0.0001890218696796  0.4993417266519435 -0.0001890218696796
  0.0001845988944290  0.4999653788536441  0.2500346211463559
  0.0001845988944290  0.4999653788536441  0.4999653788536441
 -0.0001890218696796  0.4993417266519435  0.7501890068696819
  0.0010672230698032  0.7489327619301991  0.0010672230698032
 -0.0001890218696796  0.7501890068696819  0.2506582733480565
 -0.0001890218696796  0.7501890068696819  0.4993417266519435
  0.0010672230698032  0.7489327619301991  0.7489327619301991
  0.2506582733480565 -0.0001890218696796 -0.0001890218696796
  0.2500346211463559  0.0001845988944290  0.2500346211463559
  0.2500346211463559  0.0001845988944290  0.4999653788536441
  0.2506582733480565 -0.0001890218696796  0.7501890068696819
  0.2500346211463559  0.2500346211463559  0.0001845988944290
  0.2501535497460958  0.2501535497460958  0.2501535497460958
  0.2501535497460958  0.2501535497460958  0.4998464502539042
  0.2500346211463559  0.2500346211463559  0.7498153861055733
  0.2500346211463559  0.4999653788536441  0.0001845988944290
  0.2501535497460958  0.4998464502539042  0.2501535497460958
  0.2501535497460958  0.4998464502539042  0.4998464502539042
  0.2500346211463559  0.4999653788536441  0.7498153861055733
  0.2506582733480565  0.7501890068696819 -0.0001890218696796
  0.2500346211463559  0.7498153861055733  0.2500346211463559
  0.2500346211463559  0.7498153861055733  0.4999653788536441
  0.2506582733480565  0.7501890068696819  0.7501890068696819
  0.4993417266519435 -0.0001890218696796 -0.0001890218696796
  0.4999653788536441  0.0001845988944290  0.2500346211463559
  0.4999653788536441  0.0001845988944290  0.4999653788536441
  0.4993417266519435 -0.0001890218696796  0.7501890068696819
  0.4999653788536441  0.2500346211463559  0.0001845988944290
  0.4998464502539042  0.2501535497460958  0.2501535497460958
  0.4998464502539042  0.2501535497460958  0.4998464502539042
  0.4999653788536441  0.2500346211463559  0.7498153861055733
  0.4999653788536441  0.4999653788536441  0.0001845988944290
  0.4998464502539042  0.4998464502539042  0.2501535497460958
  0.4998464502539042  0.4998464502539042  0.4998464502539042
  0.4999653788536441  0.4999653788536441  0.7498153861055733
  0.4993417266519435  0.7501890068696819 -0.0001890218696796
  0.4999653788536441  0.7498153861055733  0.2500346211463559
  0.4999653788536441  0.7498153861055733  0.4999653788536441
  0.4993417266519435  0.7501890068696819  0.7501890068696819
  0.7489327619301991  0.0010672230698032  0.0010672230698032
  0.7501890068696819 -0.0001890218696796  0.2506582733480565
  0.7501890068696819 -0.0001890218696796  0.4993417266519435
  0.7489327619301991  0.0010672230698032  0.7489327619301991
  0.7501890068696819  0.2506582733480565 -0.0001890218696796
  0.7498153861055733  0.2500346211463559  0.2500346211463559
  0.7498153861055733  0.2500346211463559  0.4999653788536441
  0.7501890068696819  0.2506582733480565  0.7501890068696819
  0.7501890068696819  0.4993417266519435 -0.0001890218696796
  0.7498153861055733  0.4999653788536441  0.2500346211463559
  0.7498153861055733  0.4999653788536441  0.4999653788536441
  0.7501890068696819  0.4993417266519435  0.7501890068696819
  0.7489327619301991  0.7489327619301991  0.0010672230698032
  0.7501890068696819  0.7501890068696819  0.2506582733480565
  0.7501890068696819  0.7501890068696819  0.4993417266519435
  0.7489327619301991  0.7489327619301991  0.7489327619301991
  0.1249462923508034  0.1249462923508034  0.1249462923508034
  0.1249276717548630  0.1249276717548630  0.3749999919999993
  0.1249462923508034  0.1249462923508034  0.6250536846491983
  0.1244202977700935  0.1244202977700935  0.8749999919999993
  0.1249276717548630  0.3749999919999993  0.1249276717548630
  0.1248334005924578  0.3749999919999993  0.3749999919999993
  0.1249276717548630  0.3749999919999993  0.6250723052451386
  0.1248927759497561  0.3749999919999993  0.8749999919999993
  0.1249462923508034  0.6250536846491983  0.1249462923508034
  0.1249276717548630  0.6250723052451386  0.3749999919999993
  0.1249462923508034  0.6250536846491983  0.6250536846491983
  0.1244202977700935  0.6255796792299082  0.8749999919999993
  0.1244202977700935  0.8749999919999993  0.1244202977700935
  0.1248927759497561  0.8749999919999993  0.3749999919999993
  0.1244202977700935  0.8749999919999993  0.6255796792299082
  0.1226969458110726  0.8749999919999993  0.8749999919999993
  0.3749999919999993  0.1249276717548630  0.1249276717548630
  0.3749999919999993  0.1248334005924578  0.3749999919999993
  0.3749999919999993  0.1249276717548630  0.6250723052451386
  0.3749999919999993  0.1248927759497561  0.8749999919999993
  0.3749999919999993  0.3749999919999993  0.1248334005924578
  0.3749999919999993  0.3749999919999993  0.3749999919999993
  0.3749999919999993  0.3749999919999993  0.6251665764075435
  0.3749999919999993  0.3749999919999993  0.8749999919999993
  0.3749999919999993  0.6250723052451386  0.1249276717548630
  0.3749999919999993  0.6251665764075435  0.3749999919999993
  0.3749999919999993  0.6250723052451386  0.6250723052451386
  0.3749999919999993  0.6251072010502456  0.8749999919999993
  0.3749999919999993  0.8749999919999993  0.1248927759497561
  0.3749999919999993  0.8749999919999993  0.3749999919999993
  0.3749999919999993  0.8749999919999993  0.6251072010502456
  0.3749999919999993  0.8749999919999993  0.8749999919999993
  0.6250536846491983  0.1249462923508034  0.1249462923508034
  0.6250723052451386  0.1249276717548630  0.3749999919999993
  0.6250536846491983  0.1249462923508034  0.6250536846491983
  0.6255796792299082  0.1244202977700935  0.8749999919999993
  0.6250723052451386  0.3749999919999993  0.1249276717548630
  0.6251665764075435  0.3749999919999993  0.3749999919999993
  0.6250723052451386  0.3749999919999993  0.6250723052451386
  0.6251072010502456  0.3749999919999993  0.8749999919999993
  0.6250536846491983  0.6250536846491983  0.1249462923508034
  0.6250723052451386  0.6250723052451386  0.3749999919999993
  0.6250536846491983  0.6250536846491983  0.6250536846491983
  0.6255796792299082  0.6255796792299082  0.8749999919999993
  0.6255796792299082  0.8749999919999993  0.1244202977700935
  0.6251072010502456  0.8749999919999993  0.3749999919999993
  0.6255796792299082  0.8749999919999993  0.6255796792299082
  0.6273030311889293  0.8749999919999993  0.8749999919999993
  0.8749999919999993  0.1244202977700935  0.1244202977700935
  0.8749999919999993  0.1248927759497561  0.3749999919999993
  0.8749999919999993  0.1244202977700935  0.6255796792299082
  0.8749999919999993  0.1226969458110726  0.8749999919999993
  0.8749999919999993  0.3749999919999993  0.1248927759497561
  0.8749999919999993  0.3749999919999993  0.3749999919999993
  0.8749999919999993  0.3749999919999993  0.6251072010502456
  0.8749999919999993  0.3749999919999993  0.8749999919999993
  0.8749999919999993  0.6255796792299082  0.1244202977700935
  0.8749999919999993  0.6251072010502456  0.3749999919999993
  0.8749999919999993  0.6255796792299082  0.6255796792299082
  0.8749999919999993  0.6273030311889293  0.8749999919999993
  0.8749999919999993  0.8749999919999993  0.1226969458110726
  0.8749999919999993  0.8749999919999993  0.3749999919999993
  0.8749999919999993  0.8749999919999993  0.6273030311889293
  0.8749999919999993  0.8749999919999993  0.8749999919999993
  0.0002065234929336  0.1247368892202720  0.1247368892202720
 -0.0003265332760040  0.1245753058434940  0.3749999919999993
  0.0002065234929336  0.1247368892202720  0.6252630877797294
 -0.0010517573888292  0.1221523610223007  0.8749999919999993
 -0.0003265332760040  0.3749999919999993  0.1245753058434940
 -0.0008606999344726  0.3749999919999993  0.3749999919999993
 -0.0003265332760040  0.3749999919999993  0.6254246711565078
 -0.0005270947041311  0.3749999919999993  0.8749999919999993
  0.0002065234929336  0.6252630877797294  0.1247368892202720
 -0.0003265332760040  0.6254246711565078  0.3749999919999993
  0.0002065234929336  0.6252630877797294  0.6252630877797294
 -0.0010517573888292  0.6278476159777009  0.8749999919999993
 -0.0010517573888292  0.8749999919999993  0.1221523610223007
 -0.0005270947041311  0.8749999919999993  0.3749999919999993
 -0.0010517573888292  0.8749999919999993  0.6278476159777009
 -0.0151025900117716  0.8749999919999993  0.8749999919999993
  0.2496862352981768  0.1248789015831016  0.1248789015831016
  0.2501606638272880  0.1247283263285764  0.3749999919999993
  0.2496862352981768  0.1248789015831016  0.6251210754169001
  0.2496518416708337  0.1238158482487843  0.8749999919999993
  0.2501606638272880  0.3749999919999993  0.1247283263285764
  0.2504230565017935  0.3749999919999993  0.3749999919999993
  0.2501606638272880  0.3749999919999993  0.6252716506714250
  0.2502087092899779  0.3749999919999993  0.8749999919999993
  0.2496862352981768  0.6251210754169001  0.1248789015831016
  0.2501606638272880  0.6252716506714250  0.3749999919999993
  0.2496862352981767  0.6251210754169001  0.6251210754169001
  0.2496518416708337  0.6261841287512175  0.8749999919999993
  0.2496518416708337  0.8749999919999993  0.1238158482487843
  0.2502087092899779  0.8749999919999993  0.3749999919999993
  0.2496518416708337  0.8749999919999993  0.6261841287512175
  0.2524644253256451  0.8749999919999993  0.8749999919999993
  0.5003137647018232  0.1248789015831016  0.1248789015831016
  0.4998393361727120  0.1247283263285764  0.3749999919999993
  0.5003137647018232  0.1248789015831016  0.6251210754169001
  0.5003481583291665  0.1238158482487843  0.8749999919999993
  0.4998393361727120  0.3749999919999993  0.1247283263285764
  0.4995769434982065  0.3749999919999993  0.3749999919999993
  0.4998393361727120  0.3749999919999993  0.6252716506714250
  0.4997912907100221  0.3749999919999993  0.8749999919999993
  0.5003137647018232  0.6251210754169001  0.1248789015831016
  0.4998393361727120  0.6252716506714250  0.3749999919999993
  0.5003137647018232  0.6251210754169001  0.6251210754169001
  0.5003481583291665  0.6261841287512175  0.8749999919999993
  0.5003481583291665  0.8749999919999993  0.1238158482487843
  0.4997912907100221  0.8749999919999993  0.3749999919999993
  0.5003481583291665  0.8749999919999993  0.6261841287512175
  0.4975355746743549  0.8749999919999993  0.8749999919999993
  0.7497934615070684  0.1247368892202720  0.1247368892202720
  0.7503265182760060  0.1245753058434940  0.3749999919999993
  0.7497934615070684  0.1247368892202720  0.6252630877797294
  0.7510517423888317  0.1221523610223007  0.8749999919999993
  0.7503265182760060  0.3749999919999993  0.1245753058434940
  0.7508606849344749  0.3749999919999993  0.3749999919999993
  0.7503265182760060  0.3749999919999993  0.6254246711565078
  0.7505270797041337  0.3749999919999993  0.8749999919999993
  0.7497934615070684  0.6252630877797294  0.1247368892202720
  0.7503265182760060  0.6254246711565078  0.3749999919999993
  0.7497934615070684  0.6252630877797294  0.6252630877797294
  0.7510517423888317  0.6278476159777009  0.8749999919999993
  0.7510517423888317  0.8749999919999993  0.1221523610223007
  0.7505270797041337  0.8749999919999993  0.3749999919999993
  0.7510517423888317  0.8749999919999993  0.6278476159777009
  0.7651025750117740  0.8749999919999993  0.8749999919999993
  0.1247368892202720  0.1247368892202720  0.0002065234929336
  0.1248789015831016  0.1248789015831016  0.2496862352981768
  0.1248789015831016  0.1248789015831016  0.5003137647018232
  0.1247368892202720  0.1247368892202720  0.7497934615070684
  0.1245753058434940  0.3749999919999993 -0.0003265332760040
  0.1247283263285764  0.3749999919999993  0.2501606638272880
  0.1247283263285764  0.3749999919999993  0.4998393361727120
  0.1245753058434940  0.3749999919999993  0.7503265182760060
  0.1247368892202720  0.6252630877797294  0.0002065234929336
  0.1248789015831016  0.6251210754169001  0.2496862352981768
  0.1248789015831016  0.6251210754169001  0.5003137647018232
  0.1247368892202720  0.6252630877797294  0.7497934615070684
  0.1221523610223007  0.8749999919999993 -0.0010517573888292
  0.1238158482487843  0.8749999919999993  0.2496518416708337
  0.1238158482487843  0.8749999919999993  0.5003481583291665
  0.1221523610223007  0.8749999919999993  0.7510517423888317
  0.3749999919999993  0.1245753058434940 -0.0003265332760040
  0.3749999919999993  0.1247283263285764  0.2501606638272880
  0.3749999919999993  0.1247283263285764  0.4998393361727120
  0.3749999919999993  0.1245753058434940  0.7503265182760060
  0.3749999919999993  0.3749999919999993 -0.0008606999344726
  0.3749999919999993  0.3749999919999993  0.2504230565017935
  0.3749999919999993  0.3749999919999993  0.4995769434982065
  0.3749999919999993  0.3749999919999993  0.7508606849344749
  0.3749999919999993  0.6254246711565078 -0.0003265332760040
  0.3749999919999993  0.6252716506714250  0.2501606638272880
  0.3749999919999993  0.6252716506714250  0.4998393361727120
  0.3749999919999993  0.6254246711565078  0.7503265182760060
  0.3749999919999993  0.8749999919999993 -0.0005270947041311
  0.3749999919999993  0.8749999919999993  0.2502087092899779
  0.3749999919999993  0.8749999919999993  0.4997912907100221
  0.3749999919999993  0.8749999919999993  0.7505270797041337
  0.6252630877797294  0.1247368892202720  0.0002065234929336
  0.6251210754169001  0.1248789015831016  0.2496862352981768
  0.6251210754169001  0.1248789015831016  0.5003137647018232
  0.6252630877797294  0.1247368892202720  0.7497934615070684
  0.6254246711565078  0.3749999919999993 -0.0003265332760040
  0.6252716506714250  0.3749999919999993  0.2501606638272880
  0.6252716506714250  0.3749999919999993  0.4998393361727120
  0.6254246711565078  0.3749999919999993  0.7503265182760060
  0.6252630877797294  0.6252630877797294  0.0002065234929336
  0.6251210754169001  0.6251210754169001  0.2496862352981767
  0.6251210754169001  0.6251210754169001  0.5003137647018232
  0.6252630877797294  0.6252630877797294  0.7497934615070684
  0.6278476159777009  0.8749999919999993 -0.0010517573888292
  0.6261841287512175  0.8749999919999993  0.2496518416708337
  0.6261841287512175  0.8749999919999993  0.5003481583291665
  0.6278476159777009  0.8749999919999993  0.7510517423888317
  0.8749999919999993  0.1221523610223007 -0.0010517573888292
  0.8749999919999993  0.1238158482487843  0.2496518416708337
  0.8749999919999993  0.1238158482487843  0.5003481583291665
  0.8749999919999993  0.1221523610223007  0.7510517423888317
  0.8749999919999993  0.3749999919999993 -0.0005270947041311
  0.8749999919999993  0.3749999919999993  0.2502087092899779
  0.8749999919999993  0.3749999919999993  0.4997912907100221
  0.8749999919999993  0.3749999919999993  0.7505270797041337
  0.8749999919999993  0.6278476159777009 -0.0010517573888292
  0.8749999919999993  0.6261841287512175  0.2496518416708337
  0.8749999919999993  0.6261841287512175  0.5003481583291665
  0.8749999919999993  0.6278476159777009  0.7510517423888317
  0.8749999919999993  0.8749999919999993 -0.0151025900117716
  0.8749999919999993  0.8749999919999993  0.2524644253256451
  0.8749999919999993  0.8749999919999993  0.4975355746743549
  0.8749999919999993  0.8749999919999993  0.7651025750117740
  0.1247368892202720  0.0002065234929336  0.1247368892202720
  0.1245753058434940 -0.0003265332760040  0.3749999919999993
  0.1247368892202720  0.0002065234929336  0.6252630877797294
  0.1221523610223007 -0.0010517573888292  0.8749999919999993
  0.1248789015831016  0.2496862352981768  0.1248789015831016
  0.1247283263285764  0.2501606638272880  0.3749999919999993
  0.1248789015831016  0.2496862352981768  0.6251210754169001
  0.1238158482487843  0.2496518416708337  0.8749999919999993
  0.1248789015831016  0.5003137647018232  0.1248789015831016
  0.1247283263285764  0.4998393361727120  0.3749999919999993
  0.1248789015831016  0.5003137647018232  0.6251210754169001
  0.1238158482487843  0.5003481583291665  0.8749999919999993
  0.1247368892202720  0.7497934615070684  0.1247368892202720
  0.1245753058434940  0.7503265182760060  0.3749999919999993
  0.1247368892202720  0.7497934615070684  0.6252630877797294
  0.1221523610223007  0.7510517423888317  0.8749999919999993
  0.3749999919999993 -0.0003265332760040  0.1245753058434940
  0.3749999919999993 -0.0008606999344726  0.3749999919999993
  0.3749999919999993 -0.0003265332760040  0.6254246711565078
  0.3749999919999993 -0.0005270947041311  0.8749999919999993
  0.3749999919999993  0.2501606638272880  0.1247283263285764
  0.3749999919999993  0.2504230565017935  0.3749999919999993
  0.3749999919999993  0.2501606638272880  0.6252716506714250
  0.3749999919999993  0.2502087092899779  0.8749999919999993
  0.3749999919999993  0.4998393361727120  0.1247283263285764
  0.3749999919999993  0.4995769434982065  0.3749999919999993
  0.3749999919999993  0.4998393361727120  0.6252716506714250
  0.3749999919999993  0.4997912907100221  0.8749999919999993
  0.3749999919999993  0.7503265182760060  0.1245753058434940
  0.3749999919999993  0.7508606849344749  0.3749999919999993
  0.3749999919999993  0.7503265182760060  0.6254246711565078
  0.3749999919999993  0.7505270797041337  0.8749999919999993
  0.6252630877797294  0.0002065234929336  0.1247368892202720
  0.6254246711565078 -0.0003265332760040  0.3749999919999993
  0.6252630877797294  0.0002065234929336  0.6252630877797294
  0.6278476159777009 -0.0010517573888292  0.8749999919999993
  0.6251210754169001  0.2496862352981768  0.1248789015831016
  0.6252716506714250  0.2501606638272880  0.3749999919999993
  0.6251210754169001  0.2496862352981767  0.6251210754169001
  0.6261841287512175  0.2496518416708337  0.8749999919999993
  0.6251210754169001  0.5003137647018232  0.1248789015831016
  0.6252716506714250  0.4998393361727120  0.3749999919999993
  0.6251210754169001  0.5003137647018232  0.6251210754169001
  0.6261841287512175  0.5003481583291665  0.8749999919999993
  0.6252630877797294  0.7497934615070684  0.1247368892202720
  0.6254246711565078  0.7503265182760060  0.3749999919999993
  0.6252630877797294  0.7497934615070684  0.6252630877797294
  0.6278476159777009  0.7510517423888317  0.8749999919999993
  0.8749999919999993 -0.0010517573888292  0.1221523610223007
  0.8749999919999993 -0.0005270947041311  0.3749999919999993
  0.8749999919999993 -0.0010517573888292  0.6278476159777009
  0.8749999919999993 -0.0151025900117716  0.8749999919999993
  0.8749999919999993  0.2496518416708337  0.1238158482487843
  0.8749999919999993  0.2502087092899779  0.3749999919999993
  0.8749999919999993  0.2496518416708337  0.6261841287512175
  0.8749999919999993  0.2524644253256451  0.8749999919999993
  0.8749999919999993  0.5003481583291663  0.1238158482487843
  0.8749999919999993  0.4997912907100221  0.3749999919999993
  0.8749999919999993  0.5003481583291665  0.6261841287512175
  0.8749999919999993  0.4975355746743549  0.8749999919999993
  0.8749999919999993  0.7510517423888317  0.1221523610223007
  0.8749999919999993  0.7505270797041337  0.3749999919999993
  0.8749999919999993  0.7510517423888317  0.6278476159777009
  0.8749999919999993  0.7651025750117740  0.8749999919999993
 
  0.00000000E+00  0.00000000E+00  0.00000000E+00
  0.00000000E+00  0.00000000E+00  0.00000000E+00
  0.00000000E+00  0.00000000E+00  0.00000000E+00
  0.00000000E+00  0.00000000E+00  0.00000000E+00
  0.00000000E+00  0.00000000E+00  0.00000000E+00
  0.00000000E+00  0.00000000E+00  0.00000000E+00
  0.00000000E+00  0.00000000E+00  0.00000000E+00
  0.00000000E+00  0.00000000E+00  0.00000000E+00
  0.00000000E+00  0.00000000E+00  0.00000000E+00
  0.00000000E+00  0.00000000E+00  0.00000000E+00
  0.00000000E+00  0.00000000E+00  0.00000000E+00
  0.00000000E+00  0.00000000E+00  0.00000000E+00
  0.00000000E+00  0.00000000E+00  0.00000000E+00
  0.00000000E+00  0.00000000E+00  0.00000000E+00
  0.00000000E+00  0.00000000E+00  0.00000000E+00
  0.00000000E+00  0.00000000E+00  0.00000000E+00
  0.00000000E+00  0.00000000E+00  0.00000000E+00
  0.00000000E+00  0.00000000E+00  0.00000000E+00
  0.00000000E+00  0.00000000E+00  0.00000000E+00
  0.00000000E+00  0.00000000E+00  0.00000000E+00
  0.00000000E+00  0.00000000E+00  0.00000000E+00
  0.00000000E+00  0.00000000E+00  0.00000000E+00
  0.00000000E+00  0.00000000E+00  0.00000000E+00
  0.00000000E+00  0.00000000E+00  0.00000000E+00
  0.00000000E+00  0.00000000E+00  0.00000000E+00
  0.00000000E+00  0.00000000E+00  0.00000000E+00
  0.00000000E+00  0.00000000E+00  0.00000000E+00
  0.00000000E+00  0.00000000E+00  0.00000000E+00
  0.00000000E+00  0.00000000E+00  0.00000000E+00
  0.00000000E+00  0.00000000E+00  0.00000000E+00
  0.00000000E+00  0.00000000E+00  0.00000000E+00
  0.00000000E+00  0.00000000E+00  0.00000000E+00
  0.00000000E+00  0.00000000E+00  0.00000000E+00
  0.00000000E+00  0.00000000E+00  0.00000000E+00
  0.00000000E+00  0.00000000E+00  0.00000000E+00
  0.00000000E+00  0.00000000E+00  0.00000000E+00
  0.00000000E+00  0.00000000E+00  0.00000000E+00
  0.00000000E+00  0.00000000E+00  0.00000000E+00
  0.00000000E+00  0.00000000E+00  0.00000000E+00
  0.00000000E+00  0.00000000E+00  0.00000000E+00
  0.00000000E+00  0.00000000E+00  0.00000000E+00
  0.00000000E+00  0.00000000E+00  0.00000000E+00
  0.00000000E+00  0.00000000E+00  0.00000000E+00
  0.00000000E+00  0.00000000E+00  0.00000000E+00
  0.00000000E+00  0.00000000E+00  0.00000000E+00
  0.00000000E+00  0.00000000E+00  0.00000000E+00
  0.00000000E+00  0.00000000E+00  0.00000000E+00
  0.00000000E+00  0.00000000E+00  0.00000000E+00
  0.00000000E+00  0.00000000E+00  0.00000000E+00
  0.00000000E+00  0.00000000E+00  0.00000000E+00
  0.00000000E+00  0.00000000E+00  0.00000000E+00
  0.00000000E+00  0.00000000E+00  0.00000000E+00
  0.00000000E+00  0.00000000E+00  0.00000000E+00
  0.00000000E+00  0.00000000E+00  0.00000000E+00
  0.00000000E+00  0.00000000E+00  0.00000000E+00
  0.00000000E+00  0.00000000E+00  0.00000000E+00
  0.00000000E+00  0.00000000E+00  0.00000000E+00
  0.00000000E+00  0.00000000E+00  0.00000000E+00
  0.00000000E+00  0.00000000E+00  0.00000000E+00
  0.00000000E+00  0.00000000E+00  0.00000000E+00
  0.00000000E+00  0.00000000E+00  0.00000000E+00
  0.00000000E+00  0.00000000E+00  0.00000000E+00
  0.00000000E+00  0.00000000E+00  0.00000000E+00
  0.00000000E+00  0.00000000E+00  0.00000000E+00
  0.00000000E+00  0.00000000E+00  0.00000000E+00
  0.00000000E+00  0.00000000E+00  0.00000000E+00
  0.00000000E+00  0.00000000E+00  0.00000000E+00
  0.00000000E+00  0.00000000E+00  0.00000000E+00
  0.00000000E+00  0.00000000E+00  0.00000000E+00
  0.00000000E+00  0.00000000E+00  0.00000000E+00
  0.00000000E+00  0.00000000E+00  0.00000000E+00
  0.00000000E+00  0.00000000E+00  0.00000000E+00
  0.00000000E+00  0.00000000E+00  0.00000000E+00
  0.00000000E+00  0.00000000E+00  0.00000000E+00
  0.00000000E+00  0.00000000E+00  0.00000000E+00
  0.00000000E+00  0.00000000E+00  0.00000000E+00
  0.00000000E+00  0.00000000E+00  0.00000000E+00
  0.00000000E+00  0.00000000E+00  0.00000000E+00
  0.00000000E+00  0.00000000E+00  0.00000000E+00
  0.00000000E+00  0.00000000E+00  0.00000000E+00
  0.00000000E+00  0.00000000E+00  0.00000000E+00
  0.00000000E+00  0.00000000E+00  0.00000000E+00
  0.00000000E+00  0.00000000E+00  0.00000000E+00
  0.00000000E+00  0.00000000E+00  0.00000000E+00
  0.00000000E+00  0.00000000E+00  0.00000000E+00
  0.00000000E+00  0.00000000E+00  0.00000000E+00
  0.00000000E+00  0.00000000E+00  0.00000000E+00
  0.00000000E+00  0.00000000E+00  0.00000000E+00
  0.00000000E+00  0.00000000E+00  0.00000000E+00
  0.00000000E+00  0.00000000E+00  0.00000000E+00
  0.00000000E+00  0.00000000E+00  0.00000000E+00
  0.00000000E+00  0.00000000E+00  0.00000000E+00
  0.00000000E+00  0.00000000E+00  0.00000000E+00
  0.00000000E+00  0.00000000E+00  0.00000000E+00
  0.00000000E+00  0.00000000E+00  0.00000000E+00
  0.00000000E+00  0.00000000E+00  0.00000000E+00
  0.00000000E+00  0.00000000E+00  0.00000000E+00
  0.00000000E+00  0.00000000E+00  0.00000000E+00
  0.00000000E+00  0.00000000E+00  0.00000000E+00
  0.00000000E+00  0.00000000E+00  0.00000000E+00
  0.00000000E+00  0.00000000E+00  0.00000000E+00
  0.00000000E+00  0.00000000E+00  0.00000000E+00
  0.00000000E+00  0.00000000E+00  0.00000000E+00
  0.00000000E+00  0.00000000E+00  0.00000000E+00
  0.00000000E+00  0.00000000E+00  0.00000000E+00
  0.00000000E+00  0.00000000E+00  0.00000000E+00
  0.00000000E+00  0.00000000E+00  0.00000000E+00
  0.00000000E+00  0.00000000E+00  0.00000000E+00
  0.00000000E+00  0.00000000E+00  0.00000000E+00
  0.00000000E+00  0.00000000E+00  0.00000000E+00
  0.00000000E+00  0.00000000E+00  0.00000000E+00
  0.00000000E+00  0.00000000E+00  0.00000000E+00
  0.00000000E+00  0.00000000E+00  0.00000000E+00
  0.00000000E+00  0.00000000E+00  0.00000000E+00
  0.00000000E+00  0.00000000E+00  0.00000000E+00
  0.00000000E+00  0.00000000E+00  0.00000000E+00
  0.00000000E+00  0.00000000E+00  0.00000000E+00
  0.00000000E+00  0.00000000E+00  0.00000000E+00
  0.00000000E+00  0.00000000E+00  0.00000000E+00
  0.00000000E+00  0.00000000E+00  0.00000000E+00
  0.00000000E+00  0.00000000E+00  0.00000000E+00
  0.00000000E+00  0.00000000E+00  0.00000000E+00
  0.00000000E+00  0.00000000E+00  0.00000000E+00
  0.00000000E+00  0.00000000E+00  0.00000000E+00
  0.00000000E+00  0.00000000E+00  0.00000000E+00
  0.00000000E+00  0.00000000E+00  0.00000000E+00
  0.00000000E+00  0.00000000E+00  0.00000000E+00
  0.00000000E+00  0.00000000E+00  0.00000000E+00
  0.00000000E+00  0.00000000E+00  0.00000000E+00
  0.00000000E+00  0.00000000E+00  0.00000000E+00
  0.00000000E+00  0.00000000E+00  0.00000000E+00
  0.00000000E+00  0.00000000E+00  0.00000000E+00
  0.00000000E+00  0.00000000E+00  0.00000000E+00
  0.00000000E+00  0.00000000E+00  0.00000000E+00
  0.00000000E+00  0.00000000E+00  0.00000000E+00
  0.00000000E+00  0.00000000E+00  0.00000000E+00
  0.00000000E+00  0.00000000E+00  0.00000000E+00
  0.00000000E+00  0.00000000E+00  0.00000000E+00
  0.00000000E+00  0.00000000E+00  0.00000000E+00
  0.00000000E+00  0.00000000E+00  0.00000000E+00
  0.00000000E+00  0.00000000E+00  0.00000000E+00
  0.00000000E+00  0.00000000E+00  0.00000000E+00
  0.00000000E+00  0.00000000E+00  0.00000000E+00
  0.00000000E+00  0.00000000E+00  0.00000000E+00
  0.00000000E+00  0.00000000E+00  0.00000000E+00
  0.00000000E+00  0.00000000E+00  0.00000000E+00
  0.00000000E+00  0.00000000E+00  0.00000000E+00
  0.00000000E+00  0.00000000E+00  0.00000000E+00
  0.00000000E+00  0.00000000E+00  0.00000000E+00
  0.00000000E+00  0.00000000E+00  0.00000000E+00
  0.00000000E+00  0.00000000E+00  0.00000000E+00
  0.00000000E+00  0.00000000E+00  0.00000000E+00
  0.00000000E+00  0.00000000E+00  0.00000000E+00
  0.00000000E+00  0.00000000E+00  0.00000000E+00
  0.00000000E+00  0.00000000E+00  0.00000000E+00
  0.00000000E+00  0.00000000E+00  0.00000000E+00
  0.00000000E+00  0.00000000E+00  0.00000000E+00
  0.00000000E+00  0.00000000E+00  0.00000000E+00
  0.00000000E+00  0.00000000E+00  0.00000000E+00
  0.00000000E+00  0.00000000E+00  0.00000000E+00
  0.00000000E+00  0.00000000E+00  0.00000000E+00
  0.00000000E+00  0.00000000E+00  0.00000000E+00
  0.00000000E+00  0.00000000E+00  0.00000000E+00
  0.00000000E+00  0.00000000E+00  0.00000000E+00
  0.00000000E+00  0.00000000E+00  0.00000000E+00
  0.00000000E+00  0.00000000E+00  0.00000000E+00
  0.00000000E+00  0.00000000E+00  0.00000000E+00
  0.00000000E+00  0.00000000E+00  0.00000000E+00
  0.00000000E+00  0.00000000E+00  0.00000000E+00
  0.00000000E+00  0.00000000E+00  0.00000000E+00
  0.00000000E+00  0.00000000E+00  0.00000000E+00
  0.00000000E+00  0.00000000E+00  0.00000000E+00
  0.00000000E+00  0.00000000E+00  0.00000000E+00
  0.00000000E+00  0.00000000E+00  0.00000000E+00
  0.00000000E+00  0.00000000E+00  0.00000000E+00
  0.00000000E+00  0.00000000E+00  0.00000000E+00
  0.00000000E+00  0.00000000E+00  0.00000000E+00
  0.00000000E+00  0.00000000E+00  0.00000000E+00
  0.00000000E+00  0.00000000E+00  0.00000000E+00
  0.00000000E+00  0.00000000E+00  0.00000000E+00
  0.00000000E+00  0.00000000E+00  0.00000000E+00
  0.00000000E+00  0.00000000E+00  0.00000000E+00
  0.00000000E+00  0.00000000E+00  0.00000000E+00
  0.00000000E+00  0.00000000E+00  0.00000000E+00
  0.00000000E+00  0.00000000E+00  0.00000000E+00
  0.00000000E+00  0.00000000E+00  0.00000000E+00
  0.00000000E+00  0.00000000E+00  0.00000000E+00
  0.00000000E+00  0.00000000E+00  0.00000000E+00
  0.00000000E+00  0.00000000E+00  0.00000000E+00
  0.00000000E+00  0.00000000E+00  0.00000000E+00
  0.00000000E+00  0.00000000E+00  0.00000000E+00
  0.00000000E+00  0.00000000E+00  0.00000000E+00
  0.00000000E+00  0.00000000E+00  0.00000000E+00
  0.00000000E+00  0.00000000E+00  0.00000000E+00
  0.00000000E+00  0.00000000E+00  0.00000000E+00
  0.00000000E+00  0.00000000E+00  0.00000000E+00
  0.00000000E+00  0.00000000E+00  0.00000000E+00
  0.00000000E+00  0.00000000E+00  0.00000000E+00
  0.00000000E+00  0.00000000E+00  0.00000000E+00
  0.00000000E+00  0.00000000E+00  0.00000000E+00
  0.00000000E+00  0.00000000E+00  0.00000000E+00
  0.00000000E+00  0.00000000E+00  0.00000000E+00
  0.00000000E+00  0.00000000E+00  0.00000000E+00
  0.00000000E+00  0.00000000E+00  0.00000000E+00
  0.00000000E+00  0.00000000E+00  0.00000000E+00
  0.00000000E+00  0.00000000E+00  0.00000000E+00
  0.00000000E+00  0.00000000E+00  0.00000000E+00