La1 Mn1 O3                              
   1.00000000000000     
    15.8659039369124386    0.0000000000000000    0.0000000000000000
     0.0000000000000000   15.9078580217747714    0.0000000000000000
     0.0000000000000000    0.0000000000000000   15.8229774222225252
   La   Mn   P    O 
    64    58     6   192
Direct
  0.0020830208346019  0.0032135519019508 -0.0023759452367696
  0.0081107974942726  0.0025532746312720  0.2500000000000000
  0.0020830208346019  0.0032135519019508  0.5023759452367695
  0.0001075200528255 -0.0029370181656453  0.7499999850000023
 -0.0009430324038184  0.2454115425355978  0.0011882556546476
 -0.0013865944285763  0.2473413508776934  0.2500000000000000
 -0.0009430324038184  0.2454115425355978  0.4988117443453525
 -0.0009228112626003  0.2447641278893408  0.7499999850000023
  0.0076788905966113  0.4881189208492902  0.0075960372366388
  0.0007758286413270  0.4941670733189645  0.2500000000000000
  0.0076788905966113  0.4881189208492902  0.4924039627633616
  0.0095489680563824  0.4862285640808695  0.7499999850000023
  0.0022731720385827  0.7518917056131498  0.0011262074187747
  0.0076313807214409  0.7339956360243424  0.2500000000000000
  0.0022731720385827  0.7518917056131497  0.4988737925812253
 -0.0118595097345859  0.7495483819074572  0.7499999850000023
  0.2508526105350236  0.0018136797035490  0.0021978221118759
  0.2528961127680049  0.0005039336009879  0.2500000000000000
  0.2508526105350236  0.0018136797035490  0.4978021778881233
  0.2495273426885043  0.0037702302156430  0.7499999850000023
  0.2503633361624534  0.2508462612712543  0.0013892773487390
  0.2497554316940914  0.2522569204417962  0.2500000000000000
  0.2503633361624534  0.2508462612712543  0.4986107226512609
  0.2481846106000312  0.2504447049786791  0.7499999850000023
  0.2521553683866520  0.4995502424169762 -0.0008443105390617
  0.2505562033540096  0.5098968018750284  0.2500000000000000
  0.2521553683866520  0.4995502424169762  0.5008443105390618
  0.2521425509758048  0.5032642067420703  0.7499999850000023
  0.2514914963405395  0.7533865297645101 -0.0036287511786014
  0.2514375084777864  0.7530579356509828  0.2500000000000000
  0.2514914963405395  0.7533865297645101  0.5036287511786016
  0.2493797355410546  0.7526700898276871  0.7499999850000023
  0.4991473894649763  0.0018136797035490  0.0021978221118759
  0.4971038872319951  0.0005039336009879  0.2500000000000000
  0.4991473894649763  0.0018136797035490  0.4978021778881233
  0.5004726573114958  0.0037702302156430  0.7499999850000023
  0.4996366638375463  0.2508462612712543  0.0013892773487390
  0.5002445683059079  0.2522569204417962  0.2500000000000000
  0.4996366638375463  0.2508462612712543  0.4986107226512609
  0.5018153893999688  0.2504447049786791  0.7499999850000023
  0.4978446316133480  0.4995502424169762 -0.0008443105390617
  0.4994437966459903  0.5098968018750284  0.2500000000000000
  0.4978446316133480  0.4995502424169762  0.5008443105390618
  0.4978574490241952  0.5032642067420703  0.7499999850000023
  0.4985085036594605  0.7533865297645101 -0.0036287511786014
  0.4985624915222136  0.7530579356509828  0.2500000000000000
  0.4985085036594605  0.7533865297645101  0.5036287511786015
  0.5006202644589455  0.7526700898276871  0.7499999850000023
  0.7479169641653999  0.0032135519019508 -0.0023759452367696
  0.7418891875057299  0.0025532746312720  0.2500000000000000
  0.7479169641654000  0.0032135519019508  0.5023759452367695
  0.7498924649471764 -0.0029370181656453  0.7499999850000023
  0.7509430174038214  0.2454115425355978  0.0011882556546476
  0.7513865794285783  0.2473413508776934  0.2500000000000000
  0.7509430174038214  0.2454115425355978  0.4988117443453525
  0.7509227962626025  0.2447641278893408  0.7499999850000023
  0.7423210944033913  0.4881189208492902  0.0075960372366388
  0.7492241563586747  0.4941670733189645  0.2500000000000000
  0.7423210944033913  0.4881189208492902  0.4924039627633616
  0.7404510169436203  0.4862285640808695  0.7499999850000023
  0.7477268129614194  0.7518917056131497  0.0011262074187747
  0.7423686042785613  0.7339956360243424  0.2500000000000000
  0.7477268129614194  0.7518917056131497  0.4988737925812253
  0.7618594947345880  0.7495483819074572  0.7499999850000023
  0.1249249078135800  0.1241166627820546  0.1252878373268534
  0.1249249078135800  0.1241166627820546  0.3747121546731462
  0.1248947605138401  0.1236972600484011  0.6252746577598814
  0.1248947605138401  0.1236972600484011  0.8747253112401195
  0.1270503611806209  0.3737429865015965  0.1271486486731636
  0.1270503611806209  0.3737429865015965  0.3728513433268358
  0.1253033879429951  0.3734644532028685  0.6237550348464839
  0.1253033879429951  0.3734644532028685  0.8762449341535171
  0.1253892847831405  0.6266327904129972  0.1214053260718495
  0.1253892847831405  0.6266327904129972  0.3785946659281498
  0.1229871799846905  0.6263638037745092  0.6261122986979666
  0.1229871799846905  0.6263638037745092  0.8738876703020344
  0.1236690122208097  0.8752774425670130  0.1258932586251786
  0.1236690122208097  0.8752774425670130  0.3741067333748205
  0.1225375177410541  0.8748138672169532  0.6257248564858626
  0.1225375177410541  0.8748138672169532  0.8742751125141384
  0.3749999919999993  0.1253270800753029  0.1255269188828741
  0.3749999919999993  0.1253270800753029  0.3744730731171252
  0.3749999919999993  0.1257413475926618  0.6262419721803542
  0.3749999919999993  0.1257413475926618  0.8737579968196468
  0.3749999919999993  0.3744621584467973  0.1251552800870267
  0.3749999919999993  0.3744621584467973  0.3748447119129726
  0.3749999919999993  0.3735574737042200  0.6227866590675224
  0.3749999919999993  0.3735574737042200  0.8772133099324786
  0.3749999919999993  0.6279077077542965  0.1241350919683206
  0.3749999919999993  0.6279077077542965  0.3758649000316783
  0.3749999919999993  0.6255587280712289  0.6274654969417873
  0.3749999919999993  0.6255587280712289  0.8725344720582137
  0.3749999919999993  0.8768695921487403  0.1226498480886903
  0.3749999919999993  0.8768695921487403  0.3773501439113089
  0.3749999919999993  0.8756360963150879  0.6259739654528559
  0.3749999919999993  0.8756360963150879  0.8740260035471450
  0.6250750691864216  0.1241166627820546  0.1252878373268534
  0.6250750691864216  0.1241166627820546  0.3747121546731462
  0.6251052164861615  0.1236972600484011  0.6252746577598814
  0.6251052164861615  0.1236972600484011  0.8747253112401195
  0.6229496158193805  0.3737429865015965  0.1271486486731636
  0.6229496158193805  0.3737429865015965  0.3728513433268358
  0.6246965890570065  0.3734644532028685  0.6237550348464839
  0.6246965890570065  0.3734644532028685  0.8762449341535171
  0.6246106922168614  0.6266327904129972  0.1214053260718495
  0.6246106922168614  0.6266327904129972  0.3785946659281498
  0.6270127970153109  0.6263638037745092  0.6261122986979666
  0.6270127970153109  0.6263638037745092  0.8738876703020344
  0.6263309647791924  0.8752774425670130  0.1258932586251786
  0.6263309647791924  0.8752774425670130  0.3741067333748205
  0.6274624592589476  0.8748138672169532  0.6257248564858626
  0.6274624592589476  0.8748138672169532  0.8742751125141384
  0.8749999919999993  0.1230730394701500  0.1255325588965265
  0.8749999919999993  0.1230730394701500  0.3744674331034730
  0.8749999919999993  0.1228435832703472  0.6232544634819732
  0.8749999919999993  0.1228435832703472  0.8767455055180278
  0.8749999919999993  0.3752868634768823  0.1266648660856352
  0.8749999919999993  0.3752868634768823  0.3733351259143641
  0.8749999919999993  0.3725022131482420  0.6240689057687895
  0.8749999919999993  0.3725022131482420  0.8759310632312115
  0.8749999919999993  0.6220841678358177  0.1231706905133435
  0.8749999919999993  0.6220841678358177  0.3768293014866556
  0.8749999919999993  0.6053155649146188  0.6132732454391486
  0.8749999919999993  0.6053155649146188  0.8867267235608524
  0.8749999919999993  0.8660496725686384  0.1452992969588505
  0.8749999919999993  0.8660496725686384  0.3547006950411491
  0.8749999919999993  0.8839893030420974  0.6174476857951076
  0.8749999919999993  0.8839893030420974  0.8825522832048934
 -0.0024836342257317  0.1213213981403874  0.1270714158587142
 -0.0024836342257317  0.1213213981403874  0.3729285761412849
 -0.0019008008614054  0.1213395330447904  0.6202688592282215
 -0.0019008008614054  0.1213395330447904  0.8797311097717795
  0.0039290988203412  0.3818477128112527  0.1322913286220126
  0.0039290988203412  0.3818477128112527  0.3677086633779870
  0.0006384477164227  0.3809656846030871  0.6309346919159475
  0.0006384477164227  0.3809656846030871  0.8690652770840535
  0.0012765183349705  0.6303098454473600  0.1130457696148019
  0.0012765183349705  0.6303098454473600  0.3869542223851977
 -0.0318045119353638  0.6408854839189452  0.6195468276172147
 -0.0318045119353638  0.6408854839189452  0.8804531413827863
 -0.0209159688325544  0.8676947037018227  0.1337025754974527
 -0.0209159688325544  0.8676947037018227  0.3662974165025466
 -0.0169193766738850  0.8850303877349894  0.6281323883435911
 -0.0169193766738850  0.8850303877349894  0.8718675806564099
  0.2504967613775817  0.1220582262878002  0.1245323488217387
  0.2504967613775817  0.1220582262878002  0.3754676431782607
  0.2505824341742682  0.1249085694489498  0.6281939036653881
  0.2505824341742682  0.1249085694489498  0.8718060653346130
  0.2486047769421562  0.3658698550593725  0.1187995654604331
  0.2486047769421562  0.3658698550593725  0.3812004265395664
  0.2484697858622741  0.3716620168122148  0.6149861348997405
  0.2484697858622741  0.3716620168122148  0.8850138341002605
  0.2478421541116695  0.6267367696360918  0.1313033772782791
  0.2478421541116695  0.6267367696360918  0.3686966147217202
  0.2537506154564974  0.6229573900361625  0.6310495615616927
  0.2537506154564974  0.6229573900361625  0.8689504074383083
  0.2532878158975493  0.8782661521423807  0.1218242883832635
  0.2532878158975493  0.8782661521423807  0.3781757036167360
  0.2528719244240196  0.8696816816084950  0.6233286561173765
  0.2528719244240196  0.8696816816084950  0.8766713128826245
  0.4995032386224183  0.1220582262878002  0.1245323488217387
  0.4995032386224183  0.1220582262878002  0.3754676431782607
  0.4994175658257319  0.1249085694489498  0.6281939036653880
  0.4994175658257319  0.1249085694489498  0.8718060653346130
  0.5013952230578441  0.3658698550593725  0.1187995654604331
  0.5013952230578441  0.3658698550593725  0.3812004265395663
  0.5015302141377262  0.3716620168122148  0.6149861348997405
  0.5015302141377262  0.3716620168122148  0.8850138341002605
  0.5021578458883307  0.6267367696360918  0.1313033772782791
  0.5021578458883307  0.6267367696360918  0.3686966147217202
  0.4962493845435025  0.6229573900361625  0.6310495615616927
  0.4962493845435025  0.6229573900361625  0.8689504074383083
  0.4967121841024507  0.8782661521423807  0.1218242883832635
  0.4967121841024507  0.8782661521423807  0.3781757036167360
  0.4971280755759809  0.8696816816084950  0.6233286561173765
  0.4971280755759809  0.8696816816084950  0.8766713128826245
  0.7524836192257340  0.1213213981403874  0.1270714158587142
  0.7524836192257340  0.1213213981403874  0.3729285761412849
  0.7519007858614078  0.1213395330447904  0.6202688592282215
  0.7519007858614078  0.1213395330447904  0.8797311097717795
  0.7460708861796607  0.3818477128112527  0.1322913286220126
  0.7460708861796607  0.3818477128112527  0.3677086633779870
  0.7493615372835795  0.3809656846030871  0.6309346919159475
  0.7493615372835795  0.3809656846030871  0.8690652770840535
  0.7487234666650321  0.6303098454473600  0.1130457696148019
  0.7487234666650321  0.6303098454473600  0.3869542223851977
  0.7818044969353657  0.6408854839189452  0.6195468276172147
  0.7818044969353657  0.6408854839189452  0.8804531413827863
  0.7709159538325573  0.8676947037018227  0.1337025754974527
  0.7709159538325573  0.8676947037018227  0.3662974165025465
  0.7669193616738869  0.8850303877349894  0.6281323883435911
  0.7669193616738869  0.8850303877349894  0.8718675806564099
  0.1248311029748689  0.1534990005554249  0.0006582728708409
  0.1267238120616958  0.0946953535723122  0.2500000000000000
  0.1248311029748689  0.1534990005554249  0.4993417271291586
  0.1215515841527631  0.0954446107594920  0.7499999850000023
  0.1142917201913584  0.3469599537199535  0.0017371916684742
  0.1351015748520394  0.4075139614714216  0.2500000000000000
  0.1142917201913584  0.3469599537199535  0.4982628083315259
  0.1364236666467542  0.4031175602637960  0.7499999850000023
  0.1268771132494401  0.6568656416789843 -0.0038531860478320
  0.1117133190480317  0.6003018183323319  0.2500000000000000
  0.1268771132494401  0.6568656416789843  0.5038531860478317
  0.1097549924954828  0.5944688715855516  0.7499999850000023
  0.1145292675736299  0.8464933285412164  0.0006639134736447
  0.1236108014721374  0.9059390404041016  0.2500000000000000
  0.1145292675736299  0.8464933285412164  0.4993360865263554
  0.1243096585619430  0.9065103343428118  0.7499999850000023
  0.3749999919999993  0.0943687504374684 -0.0003186242468020
  0.3749999919999993  0.1555206155505064  0.2500000000000000
  0.3749999919999993  0.0943687504374684  0.5003186242468018
  0.3749999919999993  0.1584476070786503  0.7499999850000023
  0.3749999919999993  0.4076536769002520  0.0014610785046047
  0.3749999919999993  0.3449128678688995  0.2500000000000000
  0.3749999919999993  0.4076536769002520  0.4985389214953954
  0.3749999919999993  0.3442101462717551  0.7499999850000023
  0.3749999919999993  0.5948212541494652 -0.0008207469029193
  0.3749999919999993  0.6608495889020205  0.2500000000000000
  0.3749999919999993  0.5948212541494652  0.5008207469029192
  0.3749999919999993  0.6632448778811789  0.7499999850000023
  0.3749999919999993  0.9094193436999333 -0.0021843588504215
  0.3749999919999993  0.8459279539878196  0.2500000000000000
  0.3749999919999993  0.9094193436999333  0.5021843588504217
  0.3749999919999993  0.8426793821123039  0.7499999850000023
  0.6251688740251330  0.1534990005554249  0.0006582728708409
  0.6232761649383061  0.0946953535723122  0.2500000000000000
  0.6251688740251330  0.1534990005554249  0.4993417271291586
  0.6284483928472385  0.0954446107594920  0.7499999850000023
  0.6357082568086430  0.3469599537199535  0.0017371916684742
  0.6148984021479623  0.4075139614714216  0.2500000000000000
  0.6357082568086430  0.3469599537199535  0.4982628083315259
  0.6135763103532477  0.4031175602637960  0.7499999850000023
  0.6231228637505617  0.6568656416789843 -0.0038531860478320
  0.6382866579519706  0.6003018183323319  0.2500000000000000
  0.6231228637505617  0.6568656416789843  0.5038531860478317
  0.6402449845045192  0.5944688715855516  0.7499999850000023
  0.6354707094263723  0.8464933285412164  0.0006639134736447
  0.6263891755278643  0.9059390404041016  0.2500000000000000
  0.6354707094263723  0.8464933285412164  0.4993360865263554
  0.6256903184380589  0.9065103343428118  0.7499999850000023
  0.8749999919999993  0.0930158753290320  0.0049631720049124
  0.8749999919999993  0.1410331329218067  0.2500000000000000
  0.8749999919999993  0.0930158753290320  0.4950368279950873
  0.8749999919999993  0.1488464710379318  0.7499999850000023
  0.8749999919999993  0.4035640916598623  0.0014128792711971
  0.8749999919999993  0.3430056884185279  0.2500000000000000
  0.8749999919999993  0.4035640916598623  0.4985871207288024
  0.8749999919999993  0.3456310944905852  0.7499999850000023
  0.8749999919999993  0.5870867693903540 -0.0131380322204488
  0.8749999919999993  0.6508212235265264  0.2500000000000000
  0.8749999919999993  0.5870867693903540  0.5131380322204496
  0.8749999919999993  0.6571920980598069  0.7499999850000023
  0.8749999919999993  0.9134769296655082 -0.0163381186998195
  0.8749999919999993  0.8313787294432212  0.2500000000000000
  0.8749999919999993  0.9134769296655082  0.5163381186998196
  0.8749999919999993  0.8508098912927613  0.7499999850000023
  0.1171553442217101 -0.0035112454782855  0.0978237235193531
  0.1171553442217101 -0.0035112454782855  0.4021762684806461
  0.1264394360677173 -0.0003219860208718  0.5944821579208026
  0.1264394360677173 -0.0003219860208718  0.9055178110791984
  0.1208686265725970  0.2507025760728249  0.1564644997505470
  0.1208686265725970  0.2507025760728249  0.3435354922494529
  0.1206165631930632  0.2481605295113536  0.6553329361622863
  0.1206165631930632  0.2481605295113536  0.8446670328377147
  0.1314994757070022  0.4985865951448640  0.0962887167533479
  0.1314994757070022  0.4985865951448640  0.4037112752466515
  0.1189686606883919  0.5034949096817649  0.5957484353199320
  0.1189686606883919  0.5034949096817649  0.9042515336800689
  0.1249945856623255  0.7535656769292157  0.1538859382376463
  0.1249945856623255  0.7535656769292157  0.3461140537623533
  0.1178004826607424  0.7491332056876765  0.6539044611897263
  0.1178004826607424  0.7491332056876765  0.8460955078102746
  0.3749999919999993  0.0019529968930178  0.1560015367721609
  0.3749999919999993  0.0019529968930178  0.3439984552278385
  0.3749999919999993  0.0019895924833712  0.6573136511589142
  0.3749999919999993  0.0019895924833712  0.8426863178410868
  0.3749999919999993  0.2474434138732576  0.0956047570830917
  0.3749999919999993  0.2474434138732576  0.4043952349169078
  0.3749999919999993  0.2473613953231087  0.5920216817751569
  0.3749999919999993  0.2473613953231087  0.9079782872248441
  0.3749999919999993  0.5019532736411653  0.1543704774672461
  0.3749999919999993  0.5019532736411653  0.3456295145327533
  0.3749999919999993  0.5010166950458280  0.6576379054961238
  0.3749999919999993  0.5010166950458280  0.8423620635038772
  0.3749999919999993  0.7526367394126792  0.0890489985653695
  0.3749999919999993  0.7526367394126792  0.4109509934346300
  0.3749999919999993  0.7487370778627302  0.5936742231445202
  0.3749999919999993  0.7487370778627302  0.9063257458554808
  0.6328446327782919 -0.0035112454782855  0.0978237235193531
  0.6328446327782919 -0.0035112454782856  0.4021762684806461
  0.6235605409322840 -0.0003219860208718  0.5944821579208026
  0.6235605409322840 -0.0003219860208718  0.9055178110791984
  0.6291313504274053  0.2507025760728249  0.1564644997505470
  0.6291313504274053  0.2507025760728249  0.3435354922494529
  0.6293834138069383  0.2481605295113536  0.6553329361622863
  0.6293834138069383  0.2481605295113536  0.8446670328377147
  0.6185005012929997  0.4985865951448640  0.0962887167533479
  0.6185005012929997  0.4985865951448640  0.4037112752466515
  0.6310313163116090  0.5034949096817649  0.5957484353199320
  0.6310313163116090  0.5034949096817649  0.9042515336800689
  0.6250053913376761  0.7535656769292157  0.1538859382376463
  0.6250053913376761  0.7535656769292157  0.3461140537623533
  0.6321994943392588  0.7491332056876765  0.6539044611897263
  0.6321994943392588  0.7491332056876765  0.8460955078102746
  0.8749999919999993 -0.0305234323712712  0.1584084743087340
  0.8749999919999993 -0.0305234323712712  0.3415915176912652
  0.8749999919999993 -0.0132790979670209  0.6548799750300643
  0.8749999919999993 -0.0132790979670209  0.8451199939699366
  0.8749999919999993  0.2542757480062908  0.0999733047834003
  0.8749999919999993  0.2542757480062908  0.4000266872165988
  0.8749999919999993  0.2480563252159134  0.5889593651951930
  0.8749999919999993  0.2480563252159134  0.9110406038048080
  0.8749999919999993  0.4955201609917044  0.1539888275123796
  0.8749999919999993  0.4955201609917044  0.3460111644876197
  0.8749999919999993  0.5142672430588719  0.6552789836664874
  0.8749999919999993  0.5142672430588719  0.8447209853335137
  0.8749999919999993  0.7694063256319359  0.1016717008389902
  0.8749999919999993  0.7694063256319359  0.3983282911610094
  0.8749999919999993  0.7827890407385273  0.5990896827186218
  0.8749999919999993  0.7827890407385273  0.9009102862813791
 
  0.00000000E+00  0.00000000E+00  0.00000000E+00
  0.00000000E+00  0.00000000E+00  0.00000000E+00
  0.00000000E+00  0.00000000E+00  0.00000000E+00
  0.00000000E+00  0.00000000E+00  0.00000000E+00
  0.00000000E+00  0.00000000E+00  0.00000000E+00
  0.00000000E+00  0.00000000E+00  0.00000000E+00
  0.00000000E+00  0.00000000E+00  0.00000000E+00
  0.00000000E+00  0.00000000E+00  0.00000000E+00
  0.00000000E+00  0.00000000E+00  0.00000000E+00
  0.00000000E+00  0.00000000E+00  0.00000000E+00
  0.00000000E+00  0.00000000E+00  0.00000000E+00
  0.00000000E+00  0.00000000E+00  0.00000000E+00
  0.00000000E+00  0.00000000E+00  0.00000000E+00
  0.00000000E+00  0.00000000E+00  0.00000000E+00
  0.00000000E+00  0.00000000E+00  0.00000000E+00
  0.00000000E+00  0.00000000E+00  0.00000000E+00
  0.00000000E+00  0.00000000E+00  0.00000000E+00
  0.00000000E+00  0.00000000E+00  0.00000000E+00
  0.00000000E+00  0.00000000E+00  0.00000000E+00
  0.00000000E+00  0.00000000E+00  0.00000000E+00
  0.00000000E+00  0.00000000E+00  0.00000000E+00
  0.00000000E+00  0.00000000E+00  0.00000000E+00
  0.00000000E+00  0.00000000E+00  0.00000000E+00
  0.00000000E+00  0.00000000E+00  0.00000000E+00
  0.00000000E+00  0.00000000E+00  0.00000000E+00
  0.00000000E+00  0.00000000E+00  0.00000000E+00
  0.00000000E+00  0.00000000E+00  0.00000000E+00
  0.00000000E+00  0.00000000E+00  0.00000000E+00
  0.00000000E+00  0.00000000E+00  0.00000000E+00
  0.00000000E+00  0.00000000E+00  0.00000000E+00
  0.00000000E+00  0.00000000E+00  0.00000000E+00
  0.00000000E+00  0.00000000E+00  0.00000000E+00
  0.00000000E+00  0.00000000E+00  0.00000000E+00
  0.00000000E+00  0.00000000E+00  0.00000000E+00
  0.00000000E+00  0.00000000E+00  0.00000000E+00
  0.00000000E+00  0.00000000E+00  0.00000000E+00
  0.00000000E+00  0.00000000E+00  0.00000000E+00
  0.00000000E+00  0.00000000E+00  0.00000000E+00
  0.00000000E+00  0.00000000E+00  0.00000000E+00
  0.00000000E+00  0.00000000E+00  0.00000000E+00
  0.00000000E+00  0.00000000E+00  0.00000000E+00
  0.00000000E+00  0.00000000E+00  0.00000000E+00
  0.00000000E+00  0.00000000E+00  0.00000000E+00
  0.00000000E+00  0.00000000E+00  0.00000000E+00
  0.00000000E+00  0.00000000E+00  0.00000000E+00
  0.00000000E+00  0.00000000E+00  0.00000000E+00
  0.00000000E+00  0.00000000E+00  0.00000000E+00
  0.00000000E+00  0.00000000E+00  0.00000000E+00
  0.00000000E+00  0.00000000E+00  0.00000000E+00
  0.00000000E+00  0.00000000E+00  0.00000000E+00
  0.00000000E+00  0.00000000E+00  0.00000000E+00
  0.00000000E+00  0.00000000E+00  0.00000000E+00
  0.00000000E+00  0.00000000E+00  0.00000000E+00
  0.00000000E+00  0.00000000E+00  0.00000000E+00
  0.00000000E+00  0.00000000E+00  0.00000000E+00
  0.00000000E+00  0.00000000E+00  0.00000000E+00
  0.00000000E+00  0.00000000E+00  0.00000000E+00
  0.00000000E+00  0.00000000E+00  0.00000000E+00
  0.00000000E+00  0.00000000E+00  0.00000000E+00
  0.00000000E+00  0.00000000E+00  0.00000000E+00
  0.00000000E+00  0.00000000E+00  0.00000000E+00
  0.00000000E+00  0.00000000E+00  0.00000000E+00
  0.00000000E+00  0.00000000E+00  0.00000000E+00
  0.00000000E+00  0.00000000E+00  0.00000000E+00
  0.00000000E+00  0.00000000E+00  0.00000000E+00
  0.00000000E+00  0.00000000E+00  0.00000000E+00
  0.00000000E+00  0.00000000E+00  0.00000000E+00
  0.00000000E+00  0.00000000E+00  0.00000000E+00
  0.00000000E+00  0.00000000E+00  0.00000000E+00
  0.00000000E+00  0.00000000E+00  0.00000000E+00
  0.00000000E+00  0.00000000E+00  0.00000000E+00
  0.00000000E+00  0.00000000E+00  0.00000000E+00
  0.00000000E+00  0.00000000E+00  0.00000000E+00
  0.00000000E+00  0.00000000E+00  0.00000000E+00
  0.00000000E+00  0.00000000E+00  0.00000000E+00
  0.00000000E+00  0.00000000E+00  0.00000000E+00
  0.00000000E+00  0.00000000E+00  0.00000000E+00
  0.00000000E+00  0.00000000E+00  0.00000000E+00
  0.00000000E+00  0.00000000E+00  0.00000000E+00
  0.00000000E+00  0.00000000E+00  0.00000000E+00
  0.00000000E+00  0.00000000E+00  0.00000000E+00
  0.00000000E+00  0.00000000E+00  0.00000000E+00
  0.00000000E+00  0.00000000E+00  0.00000000E+00
  0.00000000E+00  0.00000000E+00  0.00000000E+00
  0.00000000E+00  0.00000000E+00  0.00000000E+00
  0.00000000E+00  0.00000000E+00  0.00000000E+00
  0.00000000E+00  0.00000000E+00  0.00000000E+00
  0.00000000E+00  0.00000000E+00  0.00000000E+00
  0.00000000E+00  0.00000000E+00  0.00000000E+00
  0.00000000E+00  0.00000000E+00  0.00000000E+00
  0.00000000E+00  0.00000000E+00  0.00000000E+00
  0.00000000E+00  0.00000000E+00  0.00000000E+00
  0.00000000E+00  0.00000000E+00  0.00000000E+00
  0.00000000E+00  0.00000000E+00  0.00000000E+00
  0.00000000E+00  0.00000000E+00  0.00000000E+00
  0.00000000E+00  0.00000000E+00  0.00000000E+00
  0.00000000E+00  0.00000000E+00  0.00000000E+00
  0.00000000E+00  0.00000000E+00  0.00000000E+00
  0.00000000E+00  0.00000000E+00  0.00000000E+00
  0.00000000E+00  0.00000000E+00  0.00000000E+00
  0.00000000E+00  0.00000000E+00  0.00000000E+00
  0.00000000E+00  0.00000000E+00  0.00000000E+00
  0.00000000E+00  0.00000000E+00  0.00000000E+00
  0.00000000E+00  0.00000000E+00  0.00000000E+00
  0.00000000E+00  0.00000000E+00  0.00000000E+00
  0.00000000E+00  0.00000000E+00  0.00000000E+00
  0.00000000E+00  0.00000000E+00  0.00000000E+00
  0.00000000E+00  0.00000000E+00  0.00000000E+00
  0.00000000E+00  0.00000000E+00  0.00000000E+00
  0.00000000E+00  0.00000000E+00  0.00000000E+00
  0.00000000E+00  0.00000000E+00  0.00000000E+00
  0.00000000E+00  0.00000000E+00  0.00000000E+00
  0.00000000E+00  0.00000000E+00  0.00000000E+00
  0.00000000E+00  0.00000000E+00  0.00000000E+00
  0.00000000E+00  0.00000000E+00  0.00000000E+00
  0.00000000E+00  0.00000000E+00  0.00000000E+00
  0.00000000E+00  0.00000000E+00  0.00000000E+00
  0.00000000E+00  0.00000000E+00  0.00000000E+00
  0.00000000E+00  0.00000000E+00  0.00000000E+00
  0.00000000E+00  0.00000000E+00  0.00000000E+00
  0.00000000E+00  0.00000000E+00  0.00000000E+00
  0.00000000E+00  0.00000000E+00  0.00000000E+00
  0.00000000E+00  0.00000000E+00  0.00000000E+00
  0.00000000E+00  0.00000000E+00  0.00000000E+00
  0.00000000E+00  0.00000000E+00  0.00000000E+00
  0.00000000E+00  0.00000000E+00  0.00000000E+00
  0.00000000E+00  0.00000000E+00  0.00000000E+00
  0.00000000E+00  0.00000000E+00  0.00000000E+00
  0.00000000E+00  0.00000000E+00  0.00000000E+00
  0.00000000E+00  0.00000000E+00  0.00000000E+00
  0.00000000E+00  0.00000000E+00  0.00000000E+00
  0.00000000E+00  0.00000000E+00  0.00000000E+00
  0.00000000E+00  0.00000000E+00  0.00000000E+00
  0.00000000E+00  0.00000000E+00  0.00000000E+00
  0.00000000E+00  0.00000000E+00  0.00000000E+00
  0.00000000E+00  0.00000000E+00  0.00000000E+00
  0.00000000E+00  0.00000000E+00  0.00000000E+00
  0.00000000E+00  0.00000000E+00  0.00000000E+00
  0.00000000E+00  0.00000000E+00  0.00000000E+00
  0.00000000E+00  0.00000000E+00  0.00000000E+00
  0.00000000E+00  0.00000000E+00  0.00000000E+00
  0.00000000E+00  0.00000000E+00  0.00000000E+00
  0.00000000E+00  0.00000000E+00  0.00000000E+00
  0.00000000E+00  0.00000000E+00  0.00000000E+00
  0.00000000E+00  0.00000000E+00  0.00000000E+00
  0.00000000E+00  0.00000000E+00  0.00000000E+00
  0.00000000E+00  0.00000000E+00  0.00000000E+00
  0.00000000E+00  0.00000000E+00  0.00000000E+00
  0.00000000E+00  0.00000000E+00  0.00000000E+00
  0.00000000E+00  0.00000000E+00  0.00000000E+00
  0.00000000E+00  0.00000000E+00  0.00000000E+00
  0.00000000E+00  0.00000000E+00  0.00000000E+00
  0.00000000E+00  0.00000000E+00  0.00000000E+00
  0.00000000E+00  0.00000000E+00  0.00000000E+00
  0.00000000E+00  0.00000000E+00  0.00000000E+00
  0.00000000E+00  0.00000000E+00  0.00000000E+00
  0.00000000E+00  0.00000000E+00  0.00000000E+00
  0.00000000E+00  0.00000000E+00  0.00000000E+00
  0.00000000E+00  0.00000000E+00  0.00000000E+00
  0.00000000E+00  0.00000000E+00  0.00000000E+00
  0.00000000E+00  0.00000000E+00  0.00000000E+00
  0.00000000E+00  0.00000000E+00  0.00000000E+00
  0.00000000E+00  0.00000000E+00  0.00000000E+00
  0.00000000E+00  0.00000000E+00  0.00000000E+00
  0.00000000E+00  0.00000000E+00  0.00000000E+00
  0.00000000E+00  0.00000000E+00  0.00000000E+00
  0.00000000E+00  0.00000000E+00  0.00000000E+00
  0.00000000E+00  0.00000000E+00  0.00000000E+00
  0.00000000E+00  0.00000000E+00  0.00000000E+00
  0.00000000E+00  0.00000000E+00  0.00000000E+00
  0.00000000E+00  0.00000000E+00  0.00000000E+00
  0.00000000E+00  0.00000000E+00  0.00000000E+00
  0.00000000E+00  0.00000000E+00  0.00000000E+00
  0.00000000E+00  0.00000000E+00  0.00000000E+00
  0.00000000E+00  0.00000000E+00  0.00000000E+00
  0.00000000E+00  0.00000000E+00  0.00000000E+00
  0.00000000E+00  0.00000000E+00  0.00000000E+00
  0.00000000E+00  0.00000000E+00  0.00000000E+00
  0.00000000E+00  0.00000000E+00  0.00000000E+00
  0.00000000E+00  0.00000000E+00  0.00000000E+00
  0.00000000E+00  0.00000000E+00  0.00000000E+00
  0.00000000E+00  0.00000000E+00  0.00000000E+00
  0.00000000E+00  0.00000000E+00  0.00000000E+00
  0.00000000E+00  0.00000000E+00  0.00000000E+00
  0.00000000E+00  0.00000000E+00  0.00000000E+00
  0.00000000E+00  0.00000000E+00  0.00000000E+00
  0.00000000E+00  0.00000000E+00  0.00000000E+00
  0.00000000E+00  0.00000000E+00  0.00000000E+00
  0.00000000E+00  0.00000000E+00  0.00000000E+00
  0.00000000E+00  0.00000000E+00  0.00000000E+00
  0.00000000E+00  0.00000000E+00  0.00000000E+00
  0.00000000E+00  0.00000000E+00  0.00000000E+00
  0.00000000E+00  0.00000000E+00  0.00000000E+00
  0.00000000E+00  0.00000000E+00  0.00000000E+00
  0.00000000E+00  0.00000000E+00  0.00000000E+00
  0.00000000E+00  0.00000000E+00  0.00000000E+00
  0.00000000E+00  0.00000000E+00  0.00000000E+00
  0.00000000E+00  0.00000000E+00  0.00000000E+00
  0.00000000E+00  0.00000000E+00  0.00000000E+00
  0.00000000E+00  0.00000000E+00  0.00000000E+00
  0.00000000E+00  0.00000000E+00  0.00000000E+00
  0.00000000E+00  0.00000000E+00  0.00000000E+00
  0.00000000E+00  0.00000000E+00  0.00000000E+00
  0.00000000E+00  0.00000000E+00  0.00000000E+00
  0.00000000E+00  0.00000000E+00  0.00000000E+00
  0.00000000E+00  0.00000000E+00  0.00000000E+00
  0.00000000E+00  0.00000000E+00  0.00000000E+00