La1 Mn1 O3
1.0
       15.7774801254         0.0000000000         0.0000000000
        0.0000000000        15.7774801254         0.0000000000
        0.0000000000         0.0000000000        15.7774801254
   La    Mn   P    O
   64    58   6     192
Direct
     0.000000000         0.000000000         0.000000000
    -0.000000000        -0.000000000         0.250000000
    -0.000000000        -0.000000000         0.500000000
     0.000000000         0.000000000         0.749999985
    -0.000000000         0.250000000         0.000000000
    -0.000000000         0.250000000         0.250000000
     0.000000000         0.250000000         0.500000000
    -0.000000000         0.250000000         0.749999985
    -0.000000000         0.500000000         0.000000000
     0.000000000         0.500000000         0.250000000
    -0.000000000         0.500000000         0.500000000
    -0.000000000         0.500000000         0.749999985
     0.000000000         0.749999985         0.000000000
    -0.000000000         0.749999985         0.250000000
     0.000000000         0.749999985         0.500000000
     0.000000000         0.749999985         0.749999985
     0.250000000         0.000000000         0.000000000
     0.250000000        -0.000000000         0.250000000
     0.250000000        -0.000000000         0.500000000
     0.250000000         0.000000000         0.749999985
     0.250000000         0.250000000         0.000000000
     0.250000000         0.250000000         0.250000000
     0.250000000         0.250000000         0.500000000
     0.250000000         0.250000000         0.749999985
     0.250000000         0.500000000         0.000000000
     0.250000000         0.500000000         0.250000000
     0.250000000         0.500000000         0.500000000
     0.250000000         0.500000000         0.749999985
     0.250000000         0.749999985         0.000000000
     0.250000000         0.749999985         0.250000000
     0.250000000         0.749999985         0.500000000
     0.250000000         0.749999985         0.749999985
     0.500000000         0.000000000         0.000000000
     0.500000000        -0.000000000         0.250000000
     0.500000000        -0.000000000         0.500000000
     0.500000000         0.000000000         0.749999985
     0.500000000         0.250000000         0.000000000
     0.500000000         0.250000000         0.250000000
     0.500000000         0.250000000         0.500000000
     0.500000000         0.250000000         0.749999985
     0.500000000         0.500000000         0.000000000
     0.500000000         0.500000000         0.250000000
     0.500000000         0.500000000         0.500000000
     0.500000000         0.500000000         0.749999985
     0.500000000         0.749999985         0.000000000
     0.500000000         0.749999985         0.250000000
     0.500000000         0.749999985         0.500000000
     0.500000000         0.749999985         0.749999985
     0.749999985         0.000000000         0.000000000
     0.749999985        -0.000000000         0.250000000
     0.749999985        -0.000000000         0.500000000
     0.749999985         0.000000000         0.749999985
     0.749999985         0.250000000         0.000000000
     0.749999985         0.250000000         0.250000000
     0.749999985         0.250000000         0.500000000
     0.749999985         0.250000000         0.749999985
     0.749999985         0.500000000         0.000000000
     0.749999985         0.500000000         0.250000000
     0.749999985         0.500000000         0.500000000
     0.749999985         0.500000000         0.749999985
     0.749999985         0.749999985         0.000000000
     0.749999985         0.749999985         0.250000000
     0.749999985         0.749999985         0.500000000
     0.749999985         0.749999985         0.749999985
     0.125000000         0.125000000         0.125000000
     0.125000000         0.125000000         0.374999992
     0.125000000         0.125000000         0.624999977
     0.125000000         0.125000000         0.874999992
     0.125000000         0.374999992         0.125000000
     0.125000000         0.374999992         0.374999992
     0.125000000         0.374999992         0.624999977
     0.125000000         0.374999992         0.874999992
     0.125000000         0.624999977         0.125000000
     0.125000000         0.624999977         0.374999992
     0.125000000         0.624999977         0.624999977
     0.125000000         0.624999977         0.874999992
     0.125000000         0.874999992         0.125000000
     0.125000000         0.874999992         0.374999992
     0.125000000         0.874999992         0.624999977
     0.125000000         0.874999992         0.874999992
     0.374999992         0.125000000         0.125000000
     0.374999992         0.125000000         0.374999992
     0.374999992         0.125000000         0.624999977
     0.374999992         0.125000000         0.874999992
     0.374999992         0.374999992         0.125000000
     0.374999992         0.374999992         0.374999992
     0.374999992         0.374999992         0.624999977
     0.374999992         0.374999992         0.874999992
     0.374999992         0.624999977         0.125000000
     0.374999992         0.624999977         0.374999992
     0.374999992         0.624999977         0.624999977
     0.374999992         0.624999977         0.874999992
     0.374999992         0.874999992         0.125000000
     0.374999992         0.874999992         0.374999992
     0.374999992         0.874999992         0.624999977
     0.374999992         0.874999992         0.874999992
     0.624999977         0.125000000         0.125000000
     0.624999977         0.125000000         0.374999992
     0.624999977         0.125000000         0.624999977
     0.624999977         0.125000000         0.874999992
     0.624999977         0.374999992         0.125000000
     0.624999977         0.374999992         0.374999992
     0.624999977         0.374999992         0.624999977
     0.624999977         0.374999992         0.874999992
     0.624999977         0.624999977         0.125000000
     0.624999977         0.624999977         0.374999992
     0.624999977         0.624999977         0.624999977
     0.624999977         0.624999977         0.874999992
     0.624999977         0.874999992         0.125000000
     0.624999977         0.874999992         0.374999992
     0.624999977         0.874999992         0.624999977
     0.624999977         0.874999992         0.874999992
     0.874999992         0.125000000         0.125000000
     0.874999992         0.125000000         0.374999992
     0.874999992         0.125000000         0.624999977
     0.874999992         0.125000000         0.874999992
     0.874999992         0.374999992         0.125000000
     0.874999992         0.374999992         0.374999992
     0.874999992         0.374999992         0.624999977
     0.874999992         0.374999992         0.874999992
     0.874999992         0.624999977         0.125000000
     0.874999992         0.624999977         0.374999992
     0.874999992         0.624999977         0.624999977
     0.874999992         0.624999977         0.874999992
     0.874999992         0.874999992         0.125000000
     0.874999992         0.874999992         0.374999992
     0.874999992         0.874999992         0.624999977
     0.874999992         0.874999992         0.874999992
    -0.000000000         0.125000000         0.125000000
    -0.000000000         0.125000000         0.374999992
     0.000000000         0.125000000         0.624999977
    -0.000000000         0.125000000         0.874999992
    -0.000000000         0.374999992         0.125000000
     0.000000000         0.374999992         0.374999992
     0.000000000         0.374999992         0.624999977
    -0.000000000         0.374999992         0.874999992
    -0.000000000         0.624999977         0.125000000
     0.000000000         0.624999977         0.374999992
    -0.000000000         0.624999977         0.624999977
    -0.000000000         0.624999977         0.874999992
    -0.000000000         0.874999992         0.125000000
    -0.000000000         0.874999992         0.374999992
     0.000000000         0.874999992         0.624999977
     0.000000000         0.874999992         0.874999992
     0.250000000         0.125000000         0.125000000
     0.250000000         0.125000000         0.374999992
     0.250000000         0.125000000         0.624999977
     0.250000000         0.125000000         0.874999992
     0.250000000         0.374999992         0.125000000
     0.250000000         0.374999992         0.374999992
     0.250000000         0.374999992         0.624999977
     0.250000000         0.374999992         0.874999992
     0.250000000         0.624999977         0.125000000
     0.250000000         0.624999977         0.374999992
     0.250000000         0.624999977         0.624999977
     0.250000000         0.624999977         0.874999992
     0.250000000         0.874999992         0.125000000
     0.250000000         0.874999992         0.374999992
     0.250000000         0.874999992         0.624999977
     0.250000000         0.874999992         0.874999992
     0.500000000         0.125000000         0.125000000
     0.500000000         0.125000000         0.374999992
     0.500000000         0.125000000         0.624999977
     0.500000000         0.125000000         0.874999992
     0.500000000         0.374999992         0.125000000
     0.500000000         0.374999992         0.374999992
     0.500000000         0.374999992         0.624999977
     0.500000000         0.374999992         0.874999992
     0.500000000         0.624999977         0.125000000
     0.500000000         0.624999977         0.374999992
     0.500000000         0.624999977         0.624999977
     0.500000000         0.624999977         0.874999992
     0.500000000         0.874999992         0.125000000
     0.500000000         0.874999992         0.374999992
     0.500000000         0.874999992         0.624999977
     0.500000000         0.874999992         0.874999992
     0.749999985         0.125000000         0.125000000
     0.749999985         0.125000000         0.374999992
     0.749999985         0.125000000         0.624999977
     0.749999985         0.125000000         0.874999992
     0.749999985         0.374999992         0.125000000
     0.749999985         0.374999992         0.374999992
     0.749999985         0.374999992         0.624999977
     0.749999985         0.374999992         0.874999992
     0.749999985         0.624999977         0.125000000
     0.749999985         0.624999977         0.374999992
     0.749999985         0.624999977         0.624999977
     0.749999985         0.624999977         0.874999992
     0.749999985         0.874999992         0.125000000
     0.749999985         0.874999992         0.374999992
     0.749999985         0.874999992         0.624999977
     0.749999985         0.874999992         0.874999992
     0.125000000         0.125000000         0.000000000
     0.125000000         0.125000000         0.250000000
     0.125000000         0.125000000         0.500000000
     0.125000000         0.125000000         0.749999985
     0.125000000         0.374999992         0.000000000
     0.125000000         0.374999992         0.250000000
     0.125000000         0.374999992         0.500000000
     0.125000000         0.374999992         0.749999985
     0.125000000         0.624999977         0.000000000
     0.125000000         0.624999977         0.250000000
     0.125000000         0.624999977         0.500000000
     0.125000000         0.624999977         0.749999985
     0.125000000         0.874999992         0.000000000
     0.125000000         0.874999992         0.250000000
     0.125000000         0.874999992         0.500000000
     0.125000000         0.874999992         0.749999985
     0.374999992         0.125000000         0.000000000
     0.374999992         0.125000000         0.250000000
     0.374999992         0.125000000         0.500000000
     0.374999992         0.125000000         0.749999985
     0.374999992         0.374999992         0.000000000
     0.374999992         0.374999992         0.250000000
     0.374999992         0.374999992         0.500000000
     0.374999992         0.374999992         0.749999985
     0.374999992         0.624999977         0.000000000
     0.374999992         0.624999977         0.250000000
     0.374999992         0.624999977         0.500000000
     0.374999992         0.624999977         0.749999985
     0.374999992         0.874999992         0.000000000
     0.374999992         0.874999992         0.250000000
     0.374999992         0.874999992         0.500000000
     0.374999992         0.874999992         0.749999985
     0.624999977         0.125000000         0.000000000
     0.624999977         0.125000000         0.250000000
     0.624999977         0.125000000         0.500000000
     0.624999977         0.125000000         0.749999985
     0.624999977         0.374999992         0.000000000
     0.624999977         0.374999992         0.250000000
     0.624999977         0.374999992         0.500000000
     0.624999977         0.374999992         0.749999985
     0.624999977         0.624999977         0.000000000
     0.624999977         0.624999977         0.250000000
     0.624999977         0.624999977         0.500000000
     0.624999977         0.624999977         0.749999985
     0.624999977         0.874999992         0.000000000
     0.624999977         0.874999992         0.250000000
     0.624999977         0.874999992         0.500000000
     0.624999977         0.874999992         0.749999985
     0.874999992         0.125000000         0.000000000
     0.874999992         0.125000000         0.250000000
     0.874999992         0.125000000         0.500000000
     0.874999992         0.125000000         0.749999985
     0.874999992         0.374999992         0.000000000
     0.874999992         0.374999992         0.250000000
     0.874999992         0.374999992         0.500000000
     0.874999992         0.374999992         0.749999985
     0.874999992         0.624999977         0.000000000
     0.874999992         0.624999977         0.250000000
     0.874999992         0.624999977         0.500000000
     0.874999992         0.624999977         0.749999985
     0.874999992         0.874999992         0.000000000
     0.874999992         0.874999992         0.250000000
     0.874999992         0.874999992         0.500000000
     0.874999992         0.874999992         0.749999985
     0.125000000        -0.000000000         0.125000000
     0.125000000         0.000000000         0.374999992
     0.125000000        -0.000000000         0.624999977
     0.125000000         0.000000000         0.874999992
     0.125000000         0.250000000         0.125000000
     0.125000000         0.250000000         0.374999992
     0.125000000         0.250000000         0.624999977
     0.125000000         0.250000000         0.874999992
     0.125000000         0.500000000         0.125000000
     0.125000000         0.500000000         0.374999992
     0.125000000         0.500000000         0.624999977
     0.125000000         0.500000000         0.874999992
     0.125000000         0.749999985         0.125000000
     0.125000000         0.749999985         0.374999992
     0.125000000         0.749999985         0.624999977
     0.125000000         0.749999985         0.874999992
     0.374999992        -0.000000000         0.125000000
     0.374999992         0.000000000         0.374999992
     0.374999992        -0.000000000         0.624999977
     0.374999992         0.000000000         0.874999992
     0.374999992         0.250000000         0.125000000
     0.374999992         0.250000000         0.374999992
     0.374999992         0.250000000         0.624999977
     0.374999992         0.250000000         0.874999992
     0.374999992         0.500000000         0.125000000
     0.374999992         0.500000000         0.374999992
     0.374999992         0.500000000         0.624999977
     0.374999992         0.500000000         0.874999992
     0.374999992         0.749999985         0.125000000
     0.374999992         0.749999985         0.374999992
     0.374999992         0.749999985         0.624999977
     0.374999992         0.749999985         0.874999992
     0.624999977        -0.000000000         0.125000000
     0.624999977         0.000000000         0.374999992
     0.624999977        -0.000000000         0.624999977
     0.624999977         0.000000000         0.874999992
     0.624999977         0.250000000         0.125000000
     0.624999977         0.250000000         0.374999992
     0.624999977         0.250000000         0.624999977
     0.624999977         0.250000000         0.874999992
     0.624999977         0.500000000         0.125000000
     0.624999977         0.500000000         0.374999992
     0.624999977         0.500000000         0.624999977
     0.624999977         0.500000000         0.874999992
     0.624999977         0.749999985         0.125000000
     0.624999977         0.749999985         0.374999992
     0.624999977         0.749999985         0.624999977
     0.624999977         0.749999985         0.874999992
     0.874999992        -0.000000000         0.125000000
     0.874999992         0.000000000         0.374999992
     0.874999992        -0.000000000         0.624999977
     0.874999992         0.000000000         0.874999992
     0.874999992         0.250000000         0.125000000
     0.874999992         0.250000000         0.374999992
     0.874999992         0.250000000         0.624999977
     0.874999992         0.250000000         0.874999992
     0.874999992         0.500000000         0.125000000
     0.874999992         0.500000000         0.374999992
     0.874999992         0.500000000         0.624999977
     0.874999992         0.500000000         0.874999992
     0.874999992         0.749999985         0.125000000
     0.874999992         0.749999985         0.374999992
     0.874999992         0.749999985         0.624999977
     0.874999992         0.749999985         0.874999992
