La1 Mn1 O3                              
   1.00000000000000     
    15.8043223507266184    0.0000000000000000    0.0000000000000000
     0.0000000000000000   16.0337143162860087    0.0000000000000000
     0.0000000000000000    0.0000000000000000   15.9299991935535914
   La   Mn   P    O 
    64    57     7   192
Direct
  0.0152278973737416  0.0048918975055647 -0.0041411743862608
  0.0152278973737416  0.0048918975055647  0.2541411743862607
 -0.0025595736609368  0.0013229454685221  0.5049625720316012
 -0.0025595736609368  0.0013229454685221  0.7450374129684008
 -0.0057885528984064  0.2457075156016890  0.0042055068851425
 -0.0057885528984064  0.2457075156016890  0.2457944931148574
  0.0081723248987599  0.2461252428259827  0.4965297911728857
  0.0081723248987599  0.2461252428259827  0.7534701938271168
  0.0160218388047660  0.4825270425354574  0.0008726208200960
  0.0160218388047660  0.4825270425354574  0.2491273791799041
  0.0088210983149270  0.4939512719080836  0.5067445370260917
  0.0088210983149270  0.4939512719080836  0.7432554479739104
  0.0036629405308234  0.7507345837390745  0.0072711048612606
  0.0036629405308234  0.7507345837390745  0.2427288951387395
 -0.0070939447510297  0.7592658122749382  0.5004604087691821
 -0.0070939447510297  0.7592658122749382  0.7495395762308202
  0.2509077132243801  0.0035276188073148  0.0030191766708308
  0.2509077132243801  0.0035276188073148  0.2469808233291694
  0.2526674113232656 -0.0040712339410584  0.5018186288317685
  0.2526674113232656 -0.0040712339410584  0.7481813561682340
  0.2540610190159763  0.2511871848568920 -0.0030606800567152
  0.2540610190159763  0.2511871848568920  0.2530606800567154
  0.2474333225964298  0.2436821957370459  0.5024949095909217
  0.2474333225964298  0.2436821957370459  0.7475050754090805
  0.2500619371622374  0.5035974279640820  0.0033295025574679
  0.2500619371622373  0.5035974279640820  0.2466704974425320
  0.2536628253684161  0.4946103385532993  0.5043482043813119
  0.2536628253684161  0.4946103385532993  0.7456517806186904
  0.2547228390892350  0.7536943416573321  0.0021149014063049
  0.2547228390892350  0.7536943416573321  0.2478850985936949
  0.2462525272188179  0.7455928479967499  0.5017244045813932
  0.2462525272188179  0.7455928479967499  0.7482755804186090
  0.4990922867756199  0.0035276188073148  0.0030191766708308
  0.4990922867756199  0.0035276188073148  0.2469808233291694
  0.4973325886767347 -0.0040712339410584  0.5018186288317685
  0.4973325886767347 -0.0040712339410584  0.7481813561682340
  0.4959389809840235  0.2511871848568920 -0.0030606800567152
  0.4959389809840235  0.2511871848568920  0.2530606800567154
  0.5025666774035709  0.2436821957370459  0.5024949095909217
  0.5025666774035709  0.2436821957370459  0.7475050754090805
  0.4999380628377625  0.5035974279640820  0.0033295025574679
  0.4999380628377625  0.5035974279640820  0.2466704974425320
  0.4963371746315838  0.4946103385532993  0.5043482043813119
  0.4963371746315838  0.4946103385532993  0.7456517806186904
  0.4952771609107650  0.7536943416573321  0.0021149014063049
  0.4952771609107650  0.7536943416573321  0.2478850985936949
  0.5037474727811818  0.7455928479967499  0.5017244045813932
  0.5037474727811818  0.7455928479967499  0.7482755804186091
  0.7347720876262602  0.0048918975055647 -0.0041411743862608
  0.7347720876262602  0.0048918975055647  0.2541411743862607
  0.7525595586609392  0.0013229454685221  0.5049625720316012
  0.7525595586609392  0.0013229454685221  0.7450374129684008
  0.7557885378984092  0.2457075156016890  0.0042055068851425
  0.7557885378984092  0.2457075156016890  0.2457944931148574
  0.7418276601012419  0.2461252428259827  0.4965297911728857
  0.7418276601012419  0.2461252428259827  0.7534701938271168
  0.7339781461952355  0.4825270425354574  0.0008726208200960
  0.7339781461952355  0.4825270425354574  0.2491273791799041
  0.7411788866850753  0.4939512719080836  0.5067445370260917
  0.7411788866850753  0.4939512719080836  0.7432554479739104
  0.7463370444691791  0.7507345837390745  0.0072711048612606
  0.7463370444691791  0.7507345837390745  0.2427288951387394
  0.7570939297510317  0.7592658122749382  0.5004604087691821
  0.7570939297510317  0.7592658122749382  0.7495395762308202
  0.1294668016519608  0.1260121680833849  0.1250000000000000
  0.1283230430568808  0.1233560794933989  0.3752040467054937
  0.1259610081986043  0.1218341978105870  0.6249999770000016
  0.1283230430568808  0.1233560794933989  0.8747959372945049
  0.1324936191852576  0.3728406093255623  0.1250000000000000
  0.1269895731997592  0.3741499386305583  0.3770062606886803
  0.1242320677802699  0.3712268648919654  0.6249999770000016
  0.1269895731997592  0.3741499386305583  0.8729937233113183
  0.1177725245135232  0.6259243411524578  0.1250000000000000
  0.1176712544445610  0.6263664079760167  0.3765753238164649
  0.1196259714398293  0.6283920440583822  0.6249999770000016
  0.1176712544445610  0.6263664079760167  0.8734246601835345
  0.1214555737539755  0.8762553922794191  0.1250000000000000
  0.1207993661093278  0.8716704085782508  0.3748828199143884
  0.1218804977931562  0.8723109464561608  0.6249999770000016
  0.1207993661093278  0.8716704085782508  0.8751171640856106
  0.3749999919999993  0.1275739706343257  0.1250000000000000
  0.3749999919999993  0.1219696967602977  0.3765757210535238
  0.3749999919999993  0.1202168894723531  0.6249999770000016
  0.3749999919999993  0.1219696967602977  0.8734242629464742
  0.3749999919999993  0.3792382114129326  0.1250000000000000
  0.3749999919999993  0.3786721757218161  0.3772879607084068
  0.3749999919999993  0.3711614609310795  0.6249999770000016
  0.3749999919999993  0.3786721757218161  0.8727120232915910
  0.3749999919999993  0.6301116908425911  0.1250000000000000
  0.3749999919999993  0.6279768820494065  0.3727898439057807
  0.3749999919999993  0.6223908315116743  0.6249999770000016
  0.3749999919999993  0.6279768820494065  0.8772101400942178
  0.3749999919999993  0.8775774491978184  0.1250000000000000
  0.3749999919999993  0.8671230536293354  0.3756843996288121
  0.3749999919999993  0.8667899345314812  0.6249999770000016
  0.3749999919999993  0.8671230536293354  0.8743155843711873
  0.6205331753480409  0.1260121680833849  0.1250000000000000
  0.6216769339431204  0.1233560794933989  0.3752040467054937
  0.6240389688013973  0.1218341978105870  0.6249999770000016
  0.6216769339431204  0.1233560794933989  0.8747959372945049
  0.6175063578147443  0.3728406093255623  0.1250000000000000
  0.6230104038002423  0.3741499386305583  0.3770062606886803
  0.6257679092197320  0.3712268648919654  0.6249999770000016
  0.6230104038002423  0.3741499386305583  0.8729937233113183
  0.6322274524864787  0.6259243411524578  0.1250000000000000
  0.6323287225554408  0.6263664079760167  0.3765753238164649
  0.6303740055601730  0.6283920440583822  0.6249999770000016
  0.6323287225554408  0.6263664079760167  0.8734246601835345
  0.6285444032460270  0.8762553922794191  0.1250000000000000
  0.6292006108906741  0.8716704085782508  0.3748828199143884
  0.6281194792068455  0.8723109464561608  0.6249999770000016
  0.6292006108906741  0.8716704085782508  0.8751171640856106
  0.8749999919999993  0.1216649317707025  0.1250000000000000
  0.8749999919999993  0.1232292860163150  0.3750208535802201
  0.8749999919999993  0.1252753457344631  0.6249999770000016
  0.8749999919999993  0.1232292860163150  0.8749791304197785
  0.8749999919999993  0.3668899673255165  0.1250000000000000
  0.8749999919999993  0.3708542530550989  0.3772762433681014
  0.8749999919999993  0.3779878016218888  0.6249999770000016
  0.8749999919999993  0.3708542530550989  0.8727237406318976
  0.8749999919999993  0.6178057367967950  0.1250000000000000
  0.8749999919999993  0.6011310153387713  0.3500920403906116
  0.8749999919999993  0.6114624799841211  0.6249999770000016
  0.8749999919999993  0.6011310153387713  0.8999079436093875
  0.8749999919999993  0.8737412781391162  0.1250000000000000
  0.8749999919999993  0.8845731904754631  0.3518737722952733
  0.8749999919999993  0.8947313446550830  0.6249999770000016
  0.8749999919999993  0.8845731904754631  0.8981262117047241
  0.0061778568031382  0.1424834442793502  0.1250000000000000
 -0.0001138908136978  0.1239954129009114  0.3718526450770941
  0.0026187940673775  0.1102107629931275  0.6249999770000016
 -0.0001138908136978  0.1239954129009114  0.8781473389229050
  0.0078836925107068  0.3528106763637309  0.1250000000000000
 -0.0016246464929176  0.3681885263060341  0.3701930727998745
  0.0010601017847549  0.3877109417261723  0.6249999770000016
 -0.0016246464929176  0.3681885263060340  0.8798069112001244
 -0.0033130676404069  0.6522140017319442  0.1250000000000000
 -0.0412690634027377  0.6146669127024428  0.3980093303809862
 -0.0111031717538008  0.6036034462278713  0.6249999770000016
 -0.0412690634027377  0.6146669127024428  0.8519906536190128
 -0.0205654098224746  0.8721182850089761  0.1250000000000000
 -0.0247145886057746  0.8981430825248611  0.3785357359219876
 -0.0119353801381562  0.9003602821554124  0.6249999770000016
 -0.0247145886057746  0.8981430825248611  0.8714642480780116
  0.2486287321393786  0.0960310944391041  0.1250000000000000
  0.2522665370408497  0.1218610919143977  0.3782934904635274
  0.2494551549362926  0.1372631280338571  0.6249999770000016
  0.2522665370408497  0.1218610919143977  0.8717064935364708
  0.2500887986621509  0.4071212323039926  0.1250000000000000
  0.2531519267988865  0.3888019928551719  0.3805330882801817
  0.2472815600618835  0.3608860496522922  0.6249999770000016
  0.2531519267988865  0.3888019928551719  0.8694668957198174
  0.2417326122206836  0.6132933563797250  0.1250000000000000
  0.2497583629557248  0.6357476701360184  0.3654225522585397
  0.2503862418089653  0.6335861611929907  0.6249999770000016
  0.2497583629557248  0.6357476701360184  0.8845774317414595
  0.2512582575957574  0.8862029384816169  0.1250000000000000
  0.2503313869770380  0.8510611277178840  0.3733575628703952
  0.2507739972985396  0.8501477364153464  0.6249999770000016
  0.2503313869770380  0.8510611277178840  0.8766424211296031
  0.5013712678606211  0.0960310944391041  0.1250000000000000
  0.4977334629591503  0.1218610919143977  0.3782934904635274
  0.5005448450637076  0.1372631280338571  0.6249999770000016
  0.4977334629591503  0.1218610919143977  0.8717064935364708
  0.4999112013378491  0.4071212323039926  0.1250000000000000
  0.4968480732011141  0.3888019928551719  0.3805330882801817
  0.5027184399381165  0.3608860496522922  0.6249999770000016
  0.4968480732011141  0.3888019928551719  0.8694668957198174
  0.5082673877793167  0.6132933563797250  0.1250000000000000
  0.5002416370442755  0.6357476701360184  0.3654225522585397
  0.4996137581910339  0.6335861611929907  0.6249999770000016
  0.5002416370442755  0.6357476701360184  0.8845774317414595
  0.4987417424042426  0.8862029384816169  0.1250000000000000
  0.4996686130229619  0.8510611277178840  0.3733575628703952
  0.4992260027014604  0.8501477364153464  0.6249999770000016
  0.4996686130229619  0.8510611277178840  0.8766424211296031
  0.7438221281968643  0.1424834442793502  0.1250000000000000
  0.7501138758136997  0.1239954129009114  0.3718526450770941
  0.7473811909326257  0.1102107629931275  0.6249999770000016
  0.7501138758136997  0.1239954129009114  0.8781473389229050
  0.7421162924892954  0.3528106763637309  0.1250000000000000
  0.7516246314929200  0.3681885263060341  0.3701930727998745
  0.7489398832152472  0.3877109417261723  0.6249999770000016
  0.7516246314929200  0.3681885263060341  0.8798069112001244
  0.7533130526404095  0.6522140017319442  0.1250000000000000
  0.7912690484027401  0.6146669127024428  0.3980093303809862
  0.7611031567538029  0.6036034462278713  0.6249999770000016
  0.7912690484027401  0.6146669127024428  0.8519906536190128
  0.7705653948224769  0.8721182850089761  0.1250000000000000
  0.7747145736057763  0.8981430825248611  0.3785357359219876
  0.7619353651381583  0.9003602821554124  0.6249999770000016
  0.7747145736057763  0.8981430825248611  0.8714642480780116
  0.1297804125647511  0.1217955781215293  0.0025697253941301
  0.1297804125647511  0.1217955781215293  0.2474302746058699
  0.1243352987354533  0.1254970439688508  0.5025847329625175
  0.1243352987354533  0.1254970439688508  0.7474152520374855
  0.1328731442627999  0.3820029207909989  0.0008239830067135
  0.1328731442627999  0.3820029207909989  0.2491760169932864
  0.1201984912926201  0.3691263948354922  0.5027907944986838
  0.1201984912926201  0.3691263948354922  0.7472091905013184
  0.1017261649367796  0.6148307036953241 -0.0064226826300530
  0.1017261649367796  0.6148307036953241  0.2564226826300527
  0.1229517569523557  0.6368397861495617  0.4975234874916903
  0.1229517569523557  0.6368397861495617  0.7524764975083122
  0.1086956566929383  0.8758433475398834  0.0017508432027285
  0.1086956566929383  0.8758433475398834  0.2482491567972714
  0.1179826331793935  0.8702169513005228  0.5009428114427710
  0.1179826331793935  0.8702169513005228  0.7490571735572312
  0.3749999919999993  0.1508248661365702 -0.0070923146553422
  0.3749999919999993  0.1508248661365702  0.2570923146553424
  0.3749999919999993  0.0915061460240259  0.4943495489140684
  0.3749999919999993  0.0915061460240259  0.7556504360859335
  0.3749999919999993  0.3497753678080280 -0.0090291440726087
  0.3749999919999993  0.3497753678080280  0.2590291440726088
  0.3749999919999993  0.4014843289793713  0.4961322696865448
  0.3749999919999993  0.4014843289793713  0.7538677153134572
  0.3749999919999993  0.6607835277402830 -0.0058430080913576
  0.3749999919999993  0.6607835277402830  0.2558430080913576
  0.3749999919999993  0.5884357919280475  0.4874359449204324
  0.3749999919999993  0.5884357919280475  0.7625640400795702
  0.3749999919999993  0.8471648336069735 -0.0066127660944298
  0.3749999919999993  0.8471648336069735  0.2566127660944299
  0.3749999919999993  0.8995617090455407  0.4920682363694917
  0.3749999919999993  0.8995617090455407  0.7579317486305104
  0.6202195644352497  0.1217955781215293  0.0025697253941301
  0.6202195644352497  0.1217955781215293  0.2474302746058699
  0.6256646782645487  0.1254970439688508  0.5025847329625175
  0.6256646782645487  0.1254970439688508  0.7474152520374855
  0.6171268327372023  0.3820029207909989  0.0008239830067135
  0.6171268327372023  0.3820029207909989  0.2491760169932864
  0.6298014857073810  0.3691263948354922  0.5027907944986838
  0.6298014857073810  0.3691263948354922  0.7472091905013184
  0.6482738120632221  0.6148307036953241 -0.0064226826300530
  0.6482738120632221  0.6148307036953241  0.2564226826300527
  0.6270482200476458  0.6368397861495617  0.4975234874916903
  0.6270482200476458  0.6368397861495617  0.7524764975083122
  0.6413043203070625  0.8758433475398834  0.0017508432027285
  0.6413043203070625  0.8758433475398834  0.2482491567972714
  0.6320173438206079  0.8702169513005228  0.5009428114427710
  0.6320173438206079  0.8702169513005228  0.7490571735572312
  0.8749999919999993  0.1499960563862651 -0.0066150478544645
  0.8749999919999993  0.1499960563862651  0.2566150478544642
  0.8749999919999993  0.0867494638015222  0.4896695652377723
  0.8749999919999993  0.0867494638015222  0.7603304197622296
  0.8749999919999993  0.3433084984676533 -0.0063817738778497
  0.8749999919999993  0.3433084984676533  0.2563817738778497
  0.8749999919999993  0.4259064296729254  0.4881259789561233
  0.8749999919999993  0.4259064296729254  0.7618740060438789
  0.8749999919999993  0.6542592430867387 -0.0173981579225931
  0.8749999919999993  0.6542592430867387  0.2673981579225932
  0.8749999919999993  0.6574154768048394  0.5382215864341433
  0.8749999919999993  0.6574154768048394  0.7117783985658590
  0.8749999919999993  0.8530033179774902 -0.0030481898552370
  0.8749999919999993  0.8530033179774902  0.2530481898552374
  0.8749999919999993  0.8969323990543082  0.5181125635724029
  0.8749999919999993  0.8969323990543082  0.7318874214275997
  0.1040243051403832 -0.0021925482499539  0.1250000000000000
  0.1310205178548875 -0.0015345024558357  0.3701024091330032
  0.1525545392583582 -0.0072381158118866  0.6249999770000016
  0.1310205178548875 -0.0015345024558357  0.8798975748669950
  0.1701119526911912  0.2503383489561002  0.1250000000000000
  0.1344987743441108  0.2474184496359820  0.3775024161985763
  0.1092292959125833  0.2499929638041988  0.6249999770000016
  0.1344987743441107  0.2474184496359820  0.8724975678014227
  0.0988574319267567  0.5016226392079199  0.1250000000000000
  0.1124518627920482  0.5032592863159673  0.3842624514559532
  0.1379081845689829  0.4965626724555132  0.6249999770000016
  0.1124518627920482  0.5032592863159673  0.8657375325440457
  0.1341537167662437  0.7513602143909645  0.1250000000000000
  0.0862763062216883  0.7469536479886134  0.3704007702042544
  0.0876558940909198  0.7547744886189767  0.6249999770000016
  0.0862763062216883  0.7469536479886134  0.8795992137957441
  0.3749999919999993 -0.0025702350337883  0.1250000000000000
  0.3749999919999993 -0.0004146907256311  0.3365362349108167
  0.3749999919999993 -0.0059320904621785  0.6249999770000016
  0.3749999919999993 -0.0004146907256311  0.9134637490891817
  0.3749999919999993  0.2531752144377462  0.1250000000000000
  0.3749999919999993  0.2448046415873763  0.4137358488951836
  0.3749999919999993  0.2461572460504832  0.6249999770000016
  0.3749999919999993  0.2448046415873763  0.8362641351048156
  0.3749999919999993  0.5064303382321155  0.1250000000000000
  0.3749999919999993  0.5120609312535696  0.3296605689195031
  0.3749999919999993  0.4994311124377601  0.6249999770000016
  0.3749999919999993  0.5120609312535696  0.9203394150804958
  0.3749999919999993  0.7546499618604108  0.1250000000000000
  0.3749999919999993  0.7389987233379793  0.4222984900708133
  0.3749999919999993  0.7434495160703073  0.6249999770000016
  0.3749999919999993  0.7389987233379793  0.8277014939291858
  0.6459756718596189 -0.0021925482499539  0.1250000000000000
  0.6189794591451142 -0.0015345024558357  0.3701024091330032
  0.5974454377416433 -0.0072381158118866  0.6249999770000016
  0.6189794591451142 -0.0015345024558357  0.8798975748669950
  0.5798880243088104  0.2503383489561002  0.1250000000000000
  0.6155012026558910  0.2474184496359820  0.3775024161985763
  0.6407706810874177  0.2499929638041988  0.6249999770000016
  0.6155012026558910  0.2474184496359820  0.8724975678014227
  0.6511425450732448  0.5016226392079199  0.1250000000000000
  0.6375481142079530  0.5032592863159673  0.3842624514559532
  0.6120917924310189  0.4965626724555132  0.6249999770000016
  0.6375481142079530  0.5032592863159673  0.8657375325440457
  0.6158462602337579  0.7513602143909645  0.1250000000000000
  0.6637236707783133  0.7469536479886134  0.3704007702042544
  0.6623440829090820  0.7547744886189767  0.6249999770000016
  0.6637236707783133  0.7469536479886134  0.8795992137957441
  0.8749999919999993 -0.0215562101740293  0.1250000000000000
  0.8749999919999993 -0.0116004952187947  0.3223752885791289
  0.8749999919999993 -0.0007085648442455  0.6249999770000016
  0.8749999919999993 -0.0116004952187947  0.9276246954208708
  0.8749999919999993  0.2483170036296141  0.1250000000000000
  0.8749999919999993  0.2484941752753206  0.4294933659080531
  0.8749999919999993  0.2504164866284860  0.6249999770000016
  0.8749999919999993  0.2484941752753206  0.8205066180919454
  0.8749999919999993  0.4905715940696571  0.1250000000000000
  0.8749999919999993  0.5082057544810961  0.3189980998297196
  0.8749999919999993  0.5126907412366640  0.6249999770000016
  0.8749999919999993  0.5082057544810961  0.9310018841702785
  0.8749999919999993  0.7688370277681551  0.1250000000000000
  0.8749999919999993  0.7874182740854532  0.3886911678422477
  0.8749999919999993  0.7922678321583168  0.6249999770000016
  0.8749999919999993  0.7874182740854532  0.8613088161577506
 
  0.00000000E+00  0.00000000E+00  0.00000000E+00
  0.00000000E+00  0.00000000E+00  0.00000000E+00
  0.00000000E+00  0.00000000E+00  0.00000000E+00
  0.00000000E+00  0.00000000E+00  0.00000000E+00
  0.00000000E+00  0.00000000E+00  0.00000000E+00
  0.00000000E+00  0.00000000E+00  0.00000000E+00
  0.00000000E+00  0.00000000E+00  0.00000000E+00
  0.00000000E+00  0.00000000E+00  0.00000000E+00
  0.00000000E+00  0.00000000E+00  0.00000000E+00
  0.00000000E+00  0.00000000E+00  0.00000000E+00
  0.00000000E+00  0.00000000E+00  0.00000000E+00
  0.00000000E+00  0.00000000E+00  0.00000000E+00
  0.00000000E+00  0.00000000E+00  0.00000000E+00
  0.00000000E+00  0.00000000E+00  0.00000000E+00
  0.00000000E+00  0.00000000E+00  0.00000000E+00
  0.00000000E+00  0.00000000E+00  0.00000000E+00
  0.00000000E+00  0.00000000E+00  0.00000000E+00
  0.00000000E+00  0.00000000E+00  0.00000000E+00
  0.00000000E+00  0.00000000E+00  0.00000000E+00
  0.00000000E+00  0.00000000E+00  0.00000000E+00
  0.00000000E+00  0.00000000E+00  0.00000000E+00
  0.00000000E+00  0.00000000E+00  0.00000000E+00
  0.00000000E+00  0.00000000E+00  0.00000000E+00
  0.00000000E+00  0.00000000E+00  0.00000000E+00
  0.00000000E+00  0.00000000E+00  0.00000000E+00
  0.00000000E+00  0.00000000E+00  0.00000000E+00
  0.00000000E+00  0.00000000E+00  0.00000000E+00
  0.00000000E+00  0.00000000E+00  0.00000000E+00
  0.00000000E+00  0.00000000E+00  0.00000000E+00
  0.00000000E+00  0.00000000E+00  0.00000000E+00
  0.00000000E+00  0.00000000E+00  0.00000000E+00
  0.00000000E+00  0.00000000E+00  0.00000000E+00
  0.00000000E+00  0.00000000E+00  0.00000000E+00
  0.00000000E+00  0.00000000E+00  0.00000000E+00
  0.00000000E+00  0.00000000E+00  0.00000000E+00
  0.00000000E+00  0.00000000E+00  0.00000000E+00
  0.00000000E+00  0.00000000E+00  0.00000000E+00
  0.00000000E+00  0.00000000E+00  0.00000000E+00
  0.00000000E+00  0.00000000E+00  0.00000000E+00
  0.00000000E+00  0.00000000E+00  0.00000000E+00
  0.00000000E+00  0.00000000E+00  0.00000000E+00
  0.00000000E+00  0.00000000E+00  0.00000000E+00
  0.00000000E+00  0.00000000E+00  0.00000000E+00
  0.00000000E+00  0.00000000E+00  0.00000000E+00
  0.00000000E+00  0.00000000E+00  0.00000000E+00
  0.00000000E+00  0.00000000E+00  0.00000000E+00
  0.00000000E+00  0.00000000E+00  0.00000000E+00
  0.00000000E+00  0.00000000E+00  0.00000000E+00
  0.00000000E+00  0.00000000E+00  0.00000000E+00
  0.00000000E+00  0.00000000E+00  0.00000000E+00
  0.00000000E+00  0.00000000E+00  0.00000000E+00
  0.00000000E+00  0.00000000E+00  0.00000000E+00
  0.00000000E+00  0.00000000E+00  0.00000000E+00
  0.00000000E+00  0.00000000E+00  0.00000000E+00
  0.00000000E+00  0.00000000E+00  0.00000000E+00
  0.00000000E+00  0.00000000E+00  0.00000000E+00
  0.00000000E+00  0.00000000E+00  0.00000000E+00
  0.00000000E+00  0.00000000E+00  0.00000000E+00
  0.00000000E+00  0.00000000E+00  0.00000000E+00
  0.00000000E+00  0.00000000E+00  0.00000000E+00
  0.00000000E+00  0.00000000E+00  0.00000000E+00
  0.00000000E+00  0.00000000E+00  0.00000000E+00
  0.00000000E+00  0.00000000E+00  0.00000000E+00
  0.00000000E+00  0.00000000E+00  0.00000000E+00
  0.00000000E+00  0.00000000E+00  0.00000000E+00
  0.00000000E+00  0.00000000E+00  0.00000000E+00
  0.00000000E+00  0.00000000E+00  0.00000000E+00
  0.00000000E+00  0.00000000E+00  0.00000000E+00
  0.00000000E+00  0.00000000E+00  0.00000000E+00
  0.00000000E+00  0.00000000E+00  0.00000000E+00
  0.00000000E+00  0.00000000E+00  0.00000000E+00
  0.00000000E+00  0.00000000E+00  0.00000000E+00
  0.00000000E+00  0.00000000E+00  0.00000000E+00
  0.00000000E+00  0.00000000E+00  0.00000000E+00
  0.00000000E+00  0.00000000E+00  0.00000000E+00
  0.00000000E+00  0.00000000E+00  0.00000000E+00
  0.00000000E+00  0.00000000E+00  0.00000000E+00
  0.00000000E+00  0.00000000E+00  0.00000000E+00
  0.00000000E+00  0.00000000E+00  0.00000000E+00
  0.00000000E+00  0.00000000E+00  0.00000000E+00
  0.00000000E+00  0.00000000E+00  0.00000000E+00
  0.00000000E+00  0.00000000E+00  0.00000000E+00
  0.00000000E+00  0.00000000E+00  0.00000000E+00
  0.00000000E+00  0.00000000E+00  0.00000000E+00
  0.00000000E+00  0.00000000E+00  0.00000000E+00
  0.00000000E+00  0.00000000E+00  0.00000000E+00
  0.00000000E+00  0.00000000E+00  0.00000000E+00
  0.00000000E+00  0.00000000E+00  0.00000000E+00
  0.00000000E+00  0.00000000E+00  0.00000000E+00
  0.00000000E+00  0.00000000E+00  0.00000000E+00
  0.00000000E+00  0.00000000E+00  0.00000000E+00
  0.00000000E+00  0.00000000E+00  0.00000000E+00
  0.00000000E+00  0.00000000E+00  0.00000000E+00
  0.00000000E+00  0.00000000E+00  0.00000000E+00
  0.00000000E+00  0.00000000E+00  0.00000000E+00
  0.00000000E+00  0.00000000E+00  0.00000000E+00
  0.00000000E+00  0.00000000E+00  0.00000000E+00
  0.00000000E+00  0.00000000E+00  0.00000000E+00
  0.00000000E+00  0.00000000E+00  0.00000000E+00
  0.00000000E+00  0.00000000E+00  0.00000000E+00
  0.00000000E+00  0.00000000E+00  0.00000000E+00
  0.00000000E+00  0.00000000E+00  0.00000000E+00
  0.00000000E+00  0.00000000E+00  0.00000000E+00
  0.00000000E+00  0.00000000E+00  0.00000000E+00
  0.00000000E+00  0.00000000E+00  0.00000000E+00
  0.00000000E+00  0.00000000E+00  0.00000000E+00
  0.00000000E+00  0.00000000E+00  0.00000000E+00
  0.00000000E+00  0.00000000E+00  0.00000000E+00
  0.00000000E+00  0.00000000E+00  0.00000000E+00
  0.00000000E+00  0.00000000E+00  0.00000000E+00
  0.00000000E+00  0.00000000E+00  0.00000000E+00
  0.00000000E+00  0.00000000E+00  0.00000000E+00
  0.00000000E+00  0.00000000E+00  0.00000000E+00
  0.00000000E+00  0.00000000E+00  0.00000000E+00
  0.00000000E+00  0.00000000E+00  0.00000000E+00
  0.00000000E+00  0.00000000E+00  0.00000000E+00
  0.00000000E+00  0.00000000E+00  0.00000000E+00
  0.00000000E+00  0.00000000E+00  0.00000000E+00
  0.00000000E+00  0.00000000E+00  0.00000000E+00
  0.00000000E+00  0.00000000E+00  0.00000000E+00
  0.00000000E+00  0.00000000E+00  0.00000000E+00
  0.00000000E+00  0.00000000E+00  0.00000000E+00
  0.00000000E+00  0.00000000E+00  0.00000000E+00
  0.00000000E+00  0.00000000E+00  0.00000000E+00
  0.00000000E+00  0.00000000E+00  0.00000000E+00
  0.00000000E+00  0.00000000E+00  0.00000000E+00
  0.00000000E+00  0.00000000E+00  0.00000000E+00
  0.00000000E+00  0.00000000E+00  0.00000000E+00
  0.00000000E+00  0.00000000E+00  0.00000000E+00
  0.00000000E+00  0.00000000E+00  0.00000000E+00
  0.00000000E+00  0.00000000E+00  0.00000000E+00
  0.00000000E+00  0.00000000E+00  0.00000000E+00
  0.00000000E+00  0.00000000E+00  0.00000000E+00
  0.00000000E+00  0.00000000E+00  0.00000000E+00
  0.00000000E+00  0.00000000E+00  0.00000000E+00
  0.00000000E+00  0.00000000E+00  0.00000000E+00
  0.00000000E+00  0.00000000E+00  0.00000000E+00
  0.00000000E+00  0.00000000E+00  0.00000000E+00
  0.00000000E+00  0.00000000E+00  0.00000000E+00
  0.00000000E+00  0.00000000E+00  0.00000000E+00
  0.00000000E+00  0.00000000E+00  0.00000000E+00
  0.00000000E+00  0.00000000E+00  0.00000000E+00
  0.00000000E+00  0.00000000E+00  0.00000000E+00
  0.00000000E+00  0.00000000E+00  0.00000000E+00
  0.00000000E+00  0.00000000E+00  0.00000000E+00
  0.00000000E+00  0.00000000E+00  0.00000000E+00
  0.00000000E+00  0.00000000E+00  0.00000000E+00
  0.00000000E+00  0.00000000E+00  0.00000000E+00
  0.00000000E+00  0.00000000E+00  0.00000000E+00
  0.00000000E+00  0.00000000E+00  0.00000000E+00
  0.00000000E+00  0.00000000E+00  0.00000000E+00
  0.00000000E+00  0.00000000E+00  0.00000000E+00
  0.00000000E+00  0.00000000E+00  0.00000000E+00
  0.00000000E+00  0.00000000E+00  0.00000000E+00
  0.00000000E+00  0.00000000E+00  0.00000000E+00
  0.00000000E+00  0.00000000E+00  0.00000000E+00
  0.00000000E+00  0.00000000E+00  0.00000000E+00
  0.00000000E+00  0.00000000E+00  0.00000000E+00
  0.00000000E+00  0.00000000E+00  0.00000000E+00
  0.00000000E+00  0.00000000E+00  0.00000000E+00
  0.00000000E+00  0.00000000E+00  0.00000000E+00
  0.00000000E+00  0.00000000E+00  0.00000000E+00
  0.00000000E+00  0.00000000E+00  0.00000000E+00
  0.00000000E+00  0.00000000E+00  0.00000000E+00
  0.00000000E+00  0.00000000E+00  0.00000000E+00
  0.00000000E+00  0.00000000E+00  0.00000000E+00
  0.00000000E+00  0.00000000E+00  0.00000000E+00
  0.00000000E+00  0.00000000E+00  0.00000000E+00
  0.00000000E+00  0.00000000E+00  0.00000000E+00
  0.00000000E+00  0.00000000E+00  0.00000000E+00
  0.00000000E+00  0.00000000E+00  0.00000000E+00
  0.00000000E+00  0.00000000E+00  0.00000000E+00
  0.00000000E+00  0.00000000E+00  0.00000000E+00
  0.00000000E+00  0.00000000E+00  0.00000000E+00
  0.00000000E+00  0.00000000E+00  0.00000000E+00
  0.00000000E+00  0.00000000E+00  0.00000000E+00
  0.00000000E+00  0.00000000E+00  0.00000000E+00
  0.00000000E+00  0.00000000E+00  0.00000000E+00
  0.00000000E+00  0.00000000E+00  0.00000000E+00
  0.00000000E+00  0.00000000E+00  0.00000000E+00
  0.00000000E+00  0.00000000E+00  0.00000000E+00
  0.00000000E+00  0.00000000E+00  0.00000000E+00
  0.00000000E+00  0.00000000E+00  0.00000000E+00
  0.00000000E+00  0.00000000E+00  0.00000000E+00
  0.00000000E+00  0.00000000E+00  0.00000000E+00
  0.00000000E+00  0.00000000E+00  0.00000000E+00
  0.00000000E+00  0.00000000E+00  0.00000000E+00
  0.00000000E+00  0.00000000E+00  0.00000000E+00
  0.00000000E+00  0.00000000E+00  0.00000000E+00
  0.00000000E+00  0.00000000E+00  0.00000000E+00
  0.00000000E+00  0.00000000E+00  0.00000000E+00
  0.00000000E+00  0.00000000E+00  0.00000000E+00
  0.00000000E+00  0.00000000E+00  0.00000000E+00
  0.00000000E+00  0.00000000E+00  0.00000000E+00
  0.00000000E+00  0.00000000E+00  0.00000000E+00
  0.00000000E+00  0.00000000E+00  0.00000000E+00
  0.00000000E+00  0.00000000E+00  0.00000000E+00
  0.00000000E+00  0.00000000E+00  0.00000000E+00
  0.00000000E+00  0.00000000E+00  0.00000000E+00
  0.00000000E+00  0.00000000E+00  0.00000000E+00
  0.00000000E+00  0.00000000E+00  0.00000000E+00
  0.00000000E+00  0.00000000E+00  0.00000000E+00
  0.00000000E+00  0.00000000E+00  0.00000000E+00
  0.00000000E+00  0.00000000E+00  0.00000000E+00
  0.00000000E+00  0.00000000E+00  0.00000000E+00
  0.00000000E+00  0.00000000E+00  0.00000000E+00
  0.00000000E+00  0.00000000E+00  0.00000000E+00