La1 Mn1 O3                              
   1.00000000000000     
    15.8488844244508282    0.0000000000000000    0.0000000000000000
     0.0000000000000000   15.9630972944214360    0.0000000000000000
     0.0000000000000000    0.0000000000000000   15.8452975339968702
   La   Mn   P    O 
    64    59     5   192
Direct
 -0.0076571061228854 -0.0055379589536909 -0.0003445959869835
  0.0055166465898970  0.0069574866881385  0.2516126239508540
  0.0055166465898970  0.0069574866881385  0.4983873760491454
 -0.0076571061228854 -0.0055379589536909  0.7503445809869854
  0.0034164255506378  0.2461025040589623  0.0009256238613868
  0.0050658571674915  0.2566837071288347  0.2454751922537286
  0.0050658571674915  0.2566837071288347  0.5045248077462711
  0.0034164255506378  0.2461025040589623  0.7490743611386149
 -0.0003445840149941  0.4901494927853416 -0.0009010682523322
  0.0014135352339261  0.5018018540963881  0.2582730941610835
  0.0014135352339261  0.5018018540963881  0.4917269058389165
 -0.0003445840149941  0.4901494927853416  0.7509010532523339
 -0.0003637441055927  0.7513551125164994 -0.0026672096578406
  0.0074683959098229  0.7431541456050852  0.2480164652247099
  0.0074683959098229  0.7431541456050852  0.5019835347752897
 -0.0003637441055927  0.7513551125164994  0.7526671946578433
  0.2534114817290166 -0.0012110773194628  0.0017702023400538
  0.2474879321819272  0.0029458096190562  0.2476151695455381
  0.2474879321819272  0.0029458096190562  0.5023848304544624
  0.2534114817290166 -0.0012110773194628  0.7482297826599478
  0.2480895519402889  0.2464822211698072 -0.0038642407407358
  0.2552952791912294  0.2534946330702002  0.2577223707687356
  0.2552952791912294  0.2534946330702002  0.4922776292312645
  0.2480895519402889  0.2464822211698072  0.7538642257407377
  0.2532918906625033  0.5018298574641401  0.0016046800060414
  0.2448324468322038  0.5038484212063797  0.2463132889852985
  0.2448324468322038  0.5038484212063797  0.5036867110147016
  0.2532918906625033  0.5018298574641401  0.7483953049939616
  0.2469692914660543  0.7491852645250586 -0.0039870885221693
  0.2559691296919773  0.7547050593545772  0.2552687120270744
  0.2559691296919773  0.7547050593545772  0.4947312879729260
  0.2469692914660543  0.7491852645250586  0.7539870735221705
  0.4965885182709831 -0.0012110773194628  0.0017702023400538
  0.5025120678180729  0.0029458096190562  0.2476151695455381
  0.5025120678180729  0.0029458096190562  0.5023848304544624
  0.4965885182709831 -0.0012110773194628  0.7482297826599478
  0.5019104480597111  0.2464822211698072 -0.0038642407407358
  0.4947047208087706  0.2534946330702001  0.2577223707687356
  0.4947047208087706  0.2534946330702002  0.4922776292312645
  0.5019104480597111  0.2464822211698072  0.7538642257407377
  0.4967081093374967  0.5018298574641401  0.0016046800060414
  0.5051675531677968  0.5038484212063797  0.2463132889852985
  0.5051675531677968  0.5038484212063797  0.5036867110147016
  0.4967081093374967  0.5018298574641401  0.7483953049939616
  0.5030307085339457  0.7491852645250586 -0.0039870885221693
  0.4940308703080227  0.7547050593545772  0.2552687120270744
  0.4940308703080227  0.7547050593545772  0.4947312879729260
  0.5030307085339457  0.7491852645250586  0.7539870735221705
  0.7576570911228876 -0.0055379589536909 -0.0003445959869835
  0.7444833384101057  0.0069574866881385  0.2516126239508540
  0.7444833384101057  0.0069574866881385  0.4983873760491454
  0.7576570911228876 -0.0055379589536909  0.7503445809869854
  0.7465835594493646  0.2461025040589623  0.0009256238613868
  0.7449341278325108  0.2566837071288347  0.2454751922537286
  0.7449341278325108  0.2566837071288347  0.5045248077462711
  0.7465835594493646  0.2461025040589623  0.7490743611386149
  0.7503445690149964  0.4901494927853416 -0.0009010682523322
  0.7485864497660761  0.5018018540963881  0.2582730941610835
  0.7485864497660761  0.5018018540963881  0.4917269058389165
  0.7503445690149964  0.4901494927853416  0.7509010532523339
  0.7503637291055950  0.7513551125164994 -0.0026672096578406
  0.7425315890901798  0.7431541456050852  0.2480164652247099
  0.7425315890901798  0.7431541456050852  0.5019835347752897
  0.7503637291055951  0.7513551125164994  0.7526671946578433
  0.1247600338525470  0.1254545439864538  0.1256051479578564
  0.1236856659002712  0.1254586534561105  0.3749999919999993
  0.1247600338525470  0.1254545439864538  0.6243948290421458
  0.1238608111032748  0.1224604758492518  0.8749999919999993
  0.1265640725734235  0.3748175173478273  0.1241528546789871
  0.1251752669369574  0.3797859437112195  0.3749999919999993
  0.1265640725734235  0.3748175173478273  0.6258471223210151
  0.1252863577453223  0.3701278539754702  0.8749999919999993
  0.1232391977480474  0.6256276767415301  0.1219158784064132
  0.1261864251302872  0.6258448190895045  0.3749999919999993
  0.1232391977480474  0.6256276767415301  0.6280840985935880
  0.1226511251254629  0.6248549515065879  0.8749999919999993
  0.1215652608109370  0.8752896010294284  0.1270622237586762
  0.1200973618538854  0.8777155096591236  0.3749999919999993
  0.1215652608109370  0.8752896010294284  0.6229377532413256
  0.1230736912026983  0.8727996795717285  0.8749999919999993
  0.3749999919999993  0.1261530490938306  0.1258740795257893
  0.3749999919999993  0.1285032329979712  0.3749999919999993
  0.3749999919999993  0.1261530490938306  0.6241258974742118
  0.3749999919999993  0.1226973292556212  0.8749999919999993
  0.3749999919999993  0.3785943773856006  0.1254067782312108
  0.3749999919999993  0.3782026916568674  0.3749999919999993
  0.3749999919999993  0.3785943773856006  0.6245931987687904
  0.3749999919999993  0.3740588235288829  0.8749999919999993
  0.3749999919999993  0.6253548859713505  0.1254957770534067
  0.3749999919999993  0.6294781602401712  0.3749999919999993
  0.3749999919999993  0.6253548859713505  0.6245041999465953
  0.3749999919999993  0.6254735194462762  0.8749999919999993
  0.3749999919999993  0.8808377700678293  0.1260155942969398
  0.3749999919999993  0.8777332478739233  0.3749999919999993
  0.3749999919999993  0.8808377700678293  0.6239843827030618
  0.3749999919999993  0.8721404458845984  0.8749999919999993
  0.6252399431474548  0.1254545439864538  0.1256051479578564
  0.6263143110997311  0.1254586534561105  0.3749999919999993
  0.6252399431474548  0.1254545439864538  0.6243948290421458
  0.6261391658967270  0.1224604758492518  0.8749999919999993
  0.6234359044265781  0.3748175173478273  0.1241528546789871
  0.6248247100630441  0.3797859437112195  0.3749999919999993
  0.6234359044265781  0.3748175173478273  0.6258471223210151
  0.6247136192546801  0.3701278539754702  0.8749999919999993
  0.6267607792519549  0.6256276767415301  0.1219158784064132
  0.6238135518697143  0.6258448190895045  0.3749999919999993
  0.6267607792519549  0.6256276767415301  0.6280840985935880
  0.6273488518745391  0.6248549515065879  0.8749999919999993
  0.6284347161890648  0.8752896010294284  0.1270622237586762
  0.6299026151461160  0.8777155096591236  0.3749999919999993
  0.6284347161890648  0.8752896010294284  0.6229377532413256
  0.6269262857973035  0.8727996795717285  0.8749999919999993
  0.8749999919999993  0.1301696749221989  0.1308044472783985
  0.8749999919999993  0.1257496718501022  0.3749999919999993
  0.8749999919999993  0.1301696749221989  0.6191955297216023
  0.8749999919999993  0.1160062771017873  0.8749999919999993
  0.8749999919999993  0.3744346341744427  0.1255265941986044
  0.8749999919999993  0.3813608626435338  0.3749999919999993
  0.8749999919999993  0.3744346341744427  0.6244733828013976
  0.8749999919999993  0.3634351586722676  0.8749999919999993
  0.8749999919999993  0.6271388413553539  0.1196871739232247
  0.8749999919999993  0.6297338583898519  0.3749999919999993
  0.8749999919999993  0.6271388413553539  0.6303128030767773
  0.8749999919999993  0.6012712103904844  0.8749999919999993
  0.8749999919999993  0.8636755353585044  0.1358905316905308
  0.8749999919999993  0.8651597202214812  0.3749999919999993
  0.8749999919999993  0.8636755353585044  0.6141094453094698
  0.8749999919999993  0.8836192682794528  0.8749999919999993
  0.0024460313951063  0.1461104572057788  0.1303364354916703
 -0.0034285803034148  0.1203604440250765  0.3749999919999993
  0.0024460313951063  0.1461104572057788  0.6196635415083309
  0.0059814060123410  0.0952792134420967  0.8749999919999993
  0.0049383117169559  0.3584830554635158  0.1211882165633041
  0.0002890562014126  0.3881498265494482  0.3749999919999993
  0.0049383117169559  0.3584830554635158  0.6288117604366981
  0.0052689762442133  0.3951129354775815  0.8749999919999993
  0.0014926530782265  0.6437016615207160  0.1168068054829814
 -0.0015233696045842  0.6259178776147919  0.3749999919999993
  0.0014926530782265  0.6437016615207160  0.6331931715170201
 -0.0142445784809376  0.6024696380287945  0.8749999919999993
 -0.0200761026068022  0.8624815574926205  0.1199857120202679
 -0.0214038033325584  0.8640555288103832  0.3749999919999993
 -0.0200761026068022  0.8624815574926205  0.6300142649797333
 -0.0125890380526270  0.8907460098883337  0.8749999919999993
  0.2442649659704721  0.1039230377821605  0.1220806632398113
  0.2511355225476303  0.1310344307879867  0.3749999919999993
  0.2442649659704721  0.1039230377821605  0.6279193137601903
  0.2452611979617809  0.1442754929539799  0.8749999919999993
  0.2478190880859859  0.3958745070842066  0.1268628753967879
  0.2488511858247475  0.3697121367703852  0.3749999919999993
  0.2478190880859859  0.3958745070842066  0.6231371016032137
  0.2449413303797525  0.3491362790372833  0.8749999919999993
  0.2439218230869722  0.6082707570133633  0.1266481261576875
  0.2514416435336859  0.6353673489951983  0.3749999919999993
  0.2439218230869722  0.6082707570133633  0.6233518508423143
  0.2530144726113345  0.6391632399916017  0.8749999919999993
  0.2520765951412487  0.8947540974355602  0.1285595009348133
  0.2519027076044142  0.8753882277358749  0.3749999919999993
  0.2520765951412487  0.8947540974355602  0.6214404760651886
  0.2512859491160385  0.8552924435683538  0.8749999919999993
  0.5057350340295279  0.1039230377821605  0.1220806632398113
  0.4988644774523697  0.1310344307879867  0.3749999919999993
  0.5057350340295279  0.1039230377821605  0.6279193137601903
  0.5047388020382191  0.1442754929539799  0.8749999919999993
  0.5021809119140136  0.3958745070842066  0.1268628753967879
  0.5011488141752530  0.3697121367703852  0.3749999919999993
  0.5021809119140136  0.3958745070842066  0.6231371016032137
  0.5050586696202473  0.3491362790372833  0.8749999919999993
  0.5060781769130273  0.6082707570133633  0.1266481261576875
  0.4985583564663139  0.6353673489951983  0.3749999919999993
  0.5060781769130273  0.6082707570133633  0.6233518508423143
  0.4969855273886655  0.6391632399916017  0.8749999919999993
  0.4979234048587513  0.8947540974355602  0.1285595009348133
  0.4980972923955856  0.8753882277358749  0.3749999919999993
  0.4979234048587513  0.8947540974355602  0.6214404760651886
  0.4987140508839617  0.8552924435683538  0.8749999919999993
  0.7475539536048954  0.1461104572057788  0.1303364354916703
  0.7534285653034173  0.1203604440250765  0.3749999919999993
  0.7475539536048954  0.1461104572057788  0.6196635415083309
  0.7440185789876608  0.0952792134420968  0.8749999919999993
  0.7450616732830465  0.3584830554635158  0.1211882165633041
  0.7497109287985909  0.3881498265494482  0.3749999919999993
  0.7450616732830465  0.3584830554635158  0.6288117604366981
  0.7447310087557889  0.3951129354775815  0.8749999919999993
  0.7485073319217755  0.6437016615207160  0.1168068054829814
  0.7515233546045867  0.6259178776147919  0.3749999919999993
  0.7485073319217755  0.6437016615207160  0.6331931715170201
  0.7642445634809395  0.6024696380287945  0.8749999919999993
  0.7700760876068056  0.8624815574926205  0.1199857120202679
  0.7714037883325610  0.8640555288103832  0.3749999919999993
  0.7700760876068056  0.8624815574926205  0.6300142649797333
  0.7625890230526291  0.8907460098883337  0.8749999919999993
  0.1258545618312758  0.1458430770755184  0.0051817040342088
  0.1255240343296937  0.1063519213485351  0.2472457221200490
  0.1255240343296937  0.1063519213485351  0.5027542778799509
  0.1258545618312758  0.1458430770755184  0.7448182809657928
  0.1278303843606283  0.3477376985537154  0.0050782896882559
  0.1190259356432404  0.3997914255983473  0.2438361854694740
  0.1190259356432404  0.3997914255983473  0.5061638145305254
  0.1278303843606283  0.3477376985537154  0.7449216953117459
  0.1298085627345419  0.6466659800482528  0.0017930800652925
  0.1155300948559297  0.6088589790470476  0.2444820498762706
  0.1155300948559297  0.6088589790470476  0.5055179501237295
  0.1298085627345419  0.6466659800482528  0.7482069049347102
  0.1218646935151103  0.8564663301168162  0.0045022020035610
  0.1095827606895802  0.8888212896144262  0.2500788025970783
  0.1095827606895802  0.8888212896144262  0.4999211974029221
  0.1218646935151103  0.8564663301168162  0.7454977829964414
  0.3749999919999993  0.0993882329705955  0.0055769755029663
  0.3749999919999993  0.1576190960823451  0.2430167835945312
  0.3749999919999993  0.1576190960823451  0.5069832164054690
  0.3749999919999993  0.0993882329705955  0.7444230094970359
  0.3749999919999993  0.4003701994770628  0.0061940295845837
  0.3749999919999993  0.3521443595076796  0.2432544064423754
  0.3749999919999993  0.3521443595076796  0.5067455935576244
  0.3749999919999993  0.4003701994770628  0.7438059554154186
  0.3749999919999993  0.5974381209287762  0.0076830963231197
  0.3749999919999993  0.6574458924966882  0.2426366896152862
  0.3749999919999993  0.6574458924966882  0.5073633103847137
  0.3749999919999993  0.5974381209287762  0.7423168886768835
  0.3749999919999993  0.9029503796659880  0.0063966315885201
  0.3749999919999993  0.8505035337538899  0.2439436297458030
  0.3749999919999993  0.8505035337538899  0.5060563702541973
  0.3749999919999993  0.9029503796659880  0.7436033534114822
  0.6241454151687256  0.1458430770755184  0.0051817040342088
  0.6244759426703086  0.1063519213485351  0.2472457221200490
  0.6244759426703086  0.1063519213485351  0.5027542778799509
  0.6241454151687256  0.1458430770755184  0.7448182809657928
  0.6221695926393734  0.3477376985537154  0.0050782896882559
  0.6309740413567617  0.3997914255983473  0.2438361854694740
  0.6309740413567617  0.3997914255983473  0.5061638145305254
  0.6221695926393734  0.3477376985537154  0.7449216953117459
  0.6201914142654600  0.6466659800482528  0.0017930800652925
  0.6344698821440728  0.6088589790470476  0.2444820498762706
  0.6344698821440728  0.6088589790470476  0.5055179501237295
  0.6201914142654600  0.6466659800482528  0.7482069049347102
  0.6281352834848913  0.8564663301168162  0.0045022020035610
  0.6404172163104217  0.8888212896144262  0.2500788025970783
  0.6404172163104217  0.8888212896144262  0.4999211974029221
  0.6281352834848913  0.8564663301168162  0.7454977829964414
  0.8749999919999993  0.1114005320219870  0.0030789496293254
  0.8749999919999993  0.0947842355904889  0.2543223106643059
  0.8749999919999993  0.0947842355904889  0.4956776893356939
  0.8749999919999993  0.1114005320219870  0.7469210353706770
  0.8749999919999993  0.3523389997296618  0.0036876107654514
  0.8749999919999993  0.4052877874401473  0.2431086178878459
  0.8749999919999993  0.4052877874401473  0.5068913821121542
  0.8749999919999993  0.3523389997296618  0.7463123742345510
  0.8749999919999993  0.6370907780243451 -0.0294916860691235
  0.8749999919999993  0.6347570301128975  0.2497269526263741
  0.8749999919999993  0.6347570301128975  0.5002730473736260
  0.8749999919999993  0.6370907780243451  0.7794916710691259
  0.8749999919999993  0.8884179517253137 -0.0182713105388988
  0.8749999919999993  0.8471527189949034  0.2375869863013499
  0.8749999919999993  0.8471527189949034  0.5124130136986506
  0.8749999919999993  0.8884179517253137  0.7682712955389014
  0.0974784280852786 -0.0046770170641488  0.1091111742070389
  0.1135396336500055 -0.0023886391079194  0.3749999919999993
  0.0974784280852786 -0.0046770170641488  0.6408888027929630
  0.1506841552427170 -0.0014116734374133  0.8749999919999993
  0.1426498867320332  0.2558661224847807  0.1551032252489624
  0.1185379110794041  0.2553635901427687  0.3749999919999993
  0.1426498867320332  0.2558661224847807  0.5948967517510388
  0.0893033573685221  0.2473732388192395  0.8749999919999993
  0.1093049365028804  0.4947995809064757  0.0953494205298177
  0.1294759354329081  0.5017764279026857  0.3749999919999993
  0.1093049365028804  0.4947995809064757  0.6546505564701834
  0.1470185586697551  0.4948838007862955  0.8749999919999993
  0.1373888375173477  0.7556911710250314  0.1511936066789587
  0.1194210653480509  0.7529969161956954  0.3749999919999993
  0.1373888375173477  0.7556911710250314  0.5988063703210428
  0.0944468208330596  0.7502945070745091  0.8749999919999993
  0.3749999919999993  0.0087689412550715  0.1687997307626101
  0.3749999919999993  0.0025671047880168  0.3749999919999993
  0.3749999919999993  0.0087689412550715  0.5812002462373912
  0.3749999919999993 -0.0005534197416702  0.8749999919999993
  0.3749999919999993  0.2485840040402963  0.0925878204994137
  0.3749999919999993  0.2531002944666798  0.3749999919999993
  0.3749999919999993  0.2485840040402963  0.6574121565005882
  0.3749999919999993  0.2464202702295619  0.8749999919999993
  0.3749999919999993  0.5048788684165191  0.1634419420518166
  0.3749999919999993  0.5039734261043108  0.3749999919999993
  0.3749999919999993  0.5048788684165191  0.5865580349481849
  0.3749999919999993  0.5008547843967477  0.8749999919999993
  0.3749999919999993  0.7463949871151609  0.0893482906209699
  0.3749999919999993  0.7540556833149809  0.3749999919999993
  0.3749999919999993  0.7463949871151609  0.6606516863790325
  0.3749999919999993  0.7481535857306393  0.8749999919999993
  0.6525215489147235 -0.0046770170641488  0.1091111742070389
  0.6364603433499968 -0.0023886391079194  0.3749999919999993
  0.6525215489147235 -0.0046770170641488  0.6408888027929631
  0.5993158217572842 -0.0014116734374133  0.8749999919999993
  0.6073500902679688  0.2558661224847807  0.1551032252489624
  0.6314620659205988  0.2553635901427687  0.3749999919999993
  0.6073500902679688  0.2558661224847807  0.5948967517510388
  0.6606966196314801  0.2473732388192395  0.8749999919999993
  0.6406950404971219  0.4947995809064757  0.0953494205298177
  0.6205240415670938  0.5017764279026857  0.3749999919999993
  0.6406950404971219  0.4947995809064757  0.6546505564701834
  0.6029814183302461  0.4948838007862955  0.8749999919999993
  0.6126111394826538  0.7556911710250314  0.1511936066789587
  0.6305789116519499  0.7529969161956954  0.3749999919999993
  0.6126111394826538  0.7556911710250314  0.5988063703210428
  0.6555531561669424  0.7502945070745091  0.8749999919999993
  0.8749999919999993 -0.0309004298845237  0.1289060771861177
  0.8749999919999993 -0.0334388488245023  0.3749999919999993
  0.8749999919999993 -0.0309004298845237  0.6210938998138842
  0.8749999919999993 -0.0074856869641989  0.8749999919999993
  0.8749999919999993  0.2562151946003032  0.1651952148188566
  0.8749999919999993  0.2588617795633535  0.3749999919999993
  0.8749999919999993  0.2562151946003032  0.5848047621811449
  0.8749999919999993  0.2368446627178674  0.8749999919999993
  0.8749999919999993  0.4975001137219627  0.0927480262014886
  0.8749999919999993  0.5038274730107714  0.3749999919999993
  0.8749999919999993  0.4975001137219627  0.6572519507985130
  0.8749999919999993  0.5011806076091736  0.8749999919999993
  0.8749999919999993  0.7635055911421238  0.1011913500867125
  0.8749999919999993  0.7624280333601101  0.3749999919999993
  0.8749999919999993  0.7635055911421238  0.6488086269132889
  0.8749999919999993  0.7791921400502164  0.8749999919999993
 
  0.00000000E+00  0.00000000E+00  0.00000000E+00
  0.00000000E+00  0.00000000E+00  0.00000000E+00
  0.00000000E+00  0.00000000E+00  0.00000000E+00
  0.00000000E+00  0.00000000E+00  0.00000000E+00
  0.00000000E+00  0.00000000E+00  0.00000000E+00
  0.00000000E+00  0.00000000E+00  0.00000000E+00
  0.00000000E+00  0.00000000E+00  0.00000000E+00
  0.00000000E+00  0.00000000E+00  0.00000000E+00
  0.00000000E+00  0.00000000E+00  0.00000000E+00
  0.00000000E+00  0.00000000E+00  0.00000000E+00
  0.00000000E+00  0.00000000E+00  0.00000000E+00
  0.00000000E+00  0.00000000E+00  0.00000000E+00
  0.00000000E+00  0.00000000E+00  0.00000000E+00
  0.00000000E+00  0.00000000E+00  0.00000000E+00
  0.00000000E+00  0.00000000E+00  0.00000000E+00
  0.00000000E+00  0.00000000E+00  0.00000000E+00
  0.00000000E+00  0.00000000E+00  0.00000000E+00
  0.00000000E+00  0.00000000E+00  0.00000000E+00
  0.00000000E+00  0.00000000E+00  0.00000000E+00
  0.00000000E+00  0.00000000E+00  0.00000000E+00
  0.00000000E+00  0.00000000E+00  0.00000000E+00
  0.00000000E+00  0.00000000E+00  0.00000000E+00
  0.00000000E+00  0.00000000E+00  0.00000000E+00
  0.00000000E+00  0.00000000E+00  0.00000000E+00
  0.00000000E+00  0.00000000E+00  0.00000000E+00
  0.00000000E+00  0.00000000E+00  0.00000000E+00
  0.00000000E+00  0.00000000E+00  0.00000000E+00
  0.00000000E+00  0.00000000E+00  0.00000000E+00
  0.00000000E+00  0.00000000E+00  0.00000000E+00
  0.00000000E+00  0.00000000E+00  0.00000000E+00
  0.00000000E+00  0.00000000E+00  0.00000000E+00
  0.00000000E+00  0.00000000E+00  0.00000000E+00
  0.00000000E+00  0.00000000E+00  0.00000000E+00
  0.00000000E+00  0.00000000E+00  0.00000000E+00
  0.00000000E+00  0.00000000E+00  0.00000000E+00
  0.00000000E+00  0.00000000E+00  0.00000000E+00
  0.00000000E+00  0.00000000E+00  0.00000000E+00
  0.00000000E+00  0.00000000E+00  0.00000000E+00
  0.00000000E+00  0.00000000E+00  0.00000000E+00
  0.00000000E+00  0.00000000E+00  0.00000000E+00
  0.00000000E+00  0.00000000E+00  0.00000000E+00
  0.00000000E+00  0.00000000E+00  0.00000000E+00
  0.00000000E+00  0.00000000E+00  0.00000000E+00
  0.00000000E+00  0.00000000E+00  0.00000000E+00
  0.00000000E+00  0.00000000E+00  0.00000000E+00
  0.00000000E+00  0.00000000E+00  0.00000000E+00
  0.00000000E+00  0.00000000E+00  0.00000000E+00
  0.00000000E+00  0.00000000E+00  0.00000000E+00
  0.00000000E+00  0.00000000E+00  0.00000000E+00
  0.00000000E+00  0.00000000E+00  0.00000000E+00
  0.00000000E+00  0.00000000E+00  0.00000000E+00
  0.00000000E+00  0.00000000E+00  0.00000000E+00
  0.00000000E+00  0.00000000E+00  0.00000000E+00
  0.00000000E+00  0.00000000E+00  0.00000000E+00
  0.00000000E+00  0.00000000E+00  0.00000000E+00
  0.00000000E+00  0.00000000E+00  0.00000000E+00
  0.00000000E+00  0.00000000E+00  0.00000000E+00
  0.00000000E+00  0.00000000E+00  0.00000000E+00
  0.00000000E+00  0.00000000E+00  0.00000000E+00
  0.00000000E+00  0.00000000E+00  0.00000000E+00
  0.00000000E+00  0.00000000E+00  0.00000000E+00
  0.00000000E+00  0.00000000E+00  0.00000000E+00
  0.00000000E+00  0.00000000E+00  0.00000000E+00
  0.00000000E+00  0.00000000E+00  0.00000000E+00
  0.00000000E+00  0.00000000E+00  0.00000000E+00
  0.00000000E+00  0.00000000E+00  0.00000000E+00
  0.00000000E+00  0.00000000E+00  0.00000000E+00
  0.00000000E+00  0.00000000E+00  0.00000000E+00
  0.00000000E+00  0.00000000E+00  0.00000000E+00
  0.00000000E+00  0.00000000E+00  0.00000000E+00
  0.00000000E+00  0.00000000E+00  0.00000000E+00
  0.00000000E+00  0.00000000E+00  0.00000000E+00
  0.00000000E+00  0.00000000E+00  0.00000000E+00
  0.00000000E+00  0.00000000E+00  0.00000000E+00
  0.00000000E+00  0.00000000E+00  0.00000000E+00
  0.00000000E+00  0.00000000E+00  0.00000000E+00
  0.00000000E+00  0.00000000E+00  0.00000000E+00
  0.00000000E+00  0.00000000E+00  0.00000000E+00
  0.00000000E+00  0.00000000E+00  0.00000000E+00
  0.00000000E+00  0.00000000E+00  0.00000000E+00
  0.00000000E+00  0.00000000E+00  0.00000000E+00
  0.00000000E+00  0.00000000E+00  0.00000000E+00
  0.00000000E+00  0.00000000E+00  0.00000000E+00
  0.00000000E+00  0.00000000E+00  0.00000000E+00
  0.00000000E+00  0.00000000E+00  0.00000000E+00
  0.00000000E+00  0.00000000E+00  0.00000000E+00
  0.00000000E+00  0.00000000E+00  0.00000000E+00
  0.00000000E+00  0.00000000E+00  0.00000000E+00
  0.00000000E+00  0.00000000E+00  0.00000000E+00
  0.00000000E+00  0.00000000E+00  0.00000000E+00
  0.00000000E+00  0.00000000E+00  0.00000000E+00
  0.00000000E+00  0.00000000E+00  0.00000000E+00
  0.00000000E+00  0.00000000E+00  0.00000000E+00
  0.00000000E+00  0.00000000E+00  0.00000000E+00
  0.00000000E+00  0.00000000E+00  0.00000000E+00
  0.00000000E+00  0.00000000E+00  0.00000000E+00
  0.00000000E+00  0.00000000E+00  0.00000000E+00
  0.00000000E+00  0.00000000E+00  0.00000000E+00
  0.00000000E+00  0.00000000E+00  0.00000000E+00
  0.00000000E+00  0.00000000E+00  0.00000000E+00
  0.00000000E+00  0.00000000E+00  0.00000000E+00
  0.00000000E+00  0.00000000E+00  0.00000000E+00
  0.00000000E+00  0.00000000E+00  0.00000000E+00
  0.00000000E+00  0.00000000E+00  0.00000000E+00
  0.00000000E+00  0.00000000E+00  0.00000000E+00
  0.00000000E+00  0.00000000E+00  0.00000000E+00
  0.00000000E+00  0.00000000E+00  0.00000000E+00
  0.00000000E+00  0.00000000E+00  0.00000000E+00
  0.00000000E+00  0.00000000E+00  0.00000000E+00
  0.00000000E+00  0.00000000E+00  0.00000000E+00
  0.00000000E+00  0.00000000E+00  0.00000000E+00
  0.00000000E+00  0.00000000E+00  0.00000000E+00
  0.00000000E+00  0.00000000E+00  0.00000000E+00
  0.00000000E+00  0.00000000E+00  0.00000000E+00
  0.00000000E+00  0.00000000E+00  0.00000000E+00
  0.00000000E+00  0.00000000E+00  0.00000000E+00
  0.00000000E+00  0.00000000E+00  0.00000000E+00
  0.00000000E+00  0.00000000E+00  0.00000000E+00
  0.00000000E+00  0.00000000E+00  0.00000000E+00
  0.00000000E+00  0.00000000E+00  0.00000000E+00
  0.00000000E+00  0.00000000E+00  0.00000000E+00
  0.00000000E+00  0.00000000E+00  0.00000000E+00
  0.00000000E+00  0.00000000E+00  0.00000000E+00
  0.00000000E+00  0.00000000E+00  0.00000000E+00
  0.00000000E+00  0.00000000E+00  0.00000000E+00
  0.00000000E+00  0.00000000E+00  0.00000000E+00
  0.00000000E+00  0.00000000E+00  0.00000000E+00
  0.00000000E+00  0.00000000E+00  0.00000000E+00
  0.00000000E+00  0.00000000E+00  0.00000000E+00
  0.00000000E+00  0.00000000E+00  0.00000000E+00
  0.00000000E+00  0.00000000E+00  0.00000000E+00
  0.00000000E+00  0.00000000E+00  0.00000000E+00
  0.00000000E+00  0.00000000E+00  0.00000000E+00
  0.00000000E+00  0.00000000E+00  0.00000000E+00
  0.00000000E+00  0.00000000E+00  0.00000000E+00
  0.00000000E+00  0.00000000E+00  0.00000000E+00
  0.00000000E+00  0.00000000E+00  0.00000000E+00
  0.00000000E+00  0.00000000E+00  0.00000000E+00
  0.00000000E+00  0.00000000E+00  0.00000000E+00
  0.00000000E+00  0.00000000E+00  0.00000000E+00
  0.00000000E+00  0.00000000E+00  0.00000000E+00
  0.00000000E+00  0.00000000E+00  0.00000000E+00
  0.00000000E+00  0.00000000E+00  0.00000000E+00
  0.00000000E+00  0.00000000E+00  0.00000000E+00
  0.00000000E+00  0.00000000E+00  0.00000000E+00
  0.00000000E+00  0.00000000E+00  0.00000000E+00
  0.00000000E+00  0.00000000E+00  0.00000000E+00
  0.00000000E+00  0.00000000E+00  0.00000000E+00
  0.00000000E+00  0.00000000E+00  0.00000000E+00
  0.00000000E+00  0.00000000E+00  0.00000000E+00
  0.00000000E+00  0.00000000E+00  0.00000000E+00
  0.00000000E+00  0.00000000E+00  0.00000000E+00
  0.00000000E+00  0.00000000E+00  0.00000000E+00
  0.00000000E+00  0.00000000E+00  0.00000000E+00
  0.00000000E+00  0.00000000E+00  0.00000000E+00
  0.00000000E+00  0.00000000E+00  0.00000000E+00
  0.00000000E+00  0.00000000E+00  0.00000000E+00
  0.00000000E+00  0.00000000E+00  0.00000000E+00
  0.00000000E+00  0.00000000E+00  0.00000000E+00
  0.00000000E+00  0.00000000E+00  0.00000000E+00
  0.00000000E+00  0.00000000E+00  0.00000000E+00
  0.00000000E+00  0.00000000E+00  0.00000000E+00
  0.00000000E+00  0.00000000E+00  0.00000000E+00
  0.00000000E+00  0.00000000E+00  0.00000000E+00
  0.00000000E+00  0.00000000E+00  0.00000000E+00
  0.00000000E+00  0.00000000E+00  0.00000000E+00
  0.00000000E+00  0.00000000E+00  0.00000000E+00
  0.00000000E+00  0.00000000E+00  0.00000000E+00
  0.00000000E+00  0.00000000E+00  0.00000000E+00
  0.00000000E+00  0.00000000E+00  0.00000000E+00
  0.00000000E+00  0.00000000E+00  0.00000000E+00
  0.00000000E+00  0.00000000E+00  0.00000000E+00
  0.00000000E+00  0.00000000E+00  0.00000000E+00
  0.00000000E+00  0.00000000E+00  0.00000000E+00
  0.00000000E+00  0.00000000E+00  0.00000000E+00
  0.00000000E+00  0.00000000E+00  0.00000000E+00
  0.00000000E+00  0.00000000E+00  0.00000000E+00
  0.00000000E+00  0.00000000E+00  0.00000000E+00
  0.00000000E+00  0.00000000E+00  0.00000000E+00
  0.00000000E+00  0.00000000E+00  0.00000000E+00
  0.00000000E+00  0.00000000E+00  0.00000000E+00
  0.00000000E+00  0.00000000E+00  0.00000000E+00
  0.00000000E+00  0.00000000E+00  0.00000000E+00
  0.00000000E+00  0.00000000E+00  0.00000000E+00
  0.00000000E+00  0.00000000E+00  0.00000000E+00
  0.00000000E+00  0.00000000E+00  0.00000000E+00
  0.00000000E+00  0.00000000E+00  0.00000000E+00
  0.00000000E+00  0.00000000E+00  0.00000000E+00
  0.00000000E+00  0.00000000E+00  0.00000000E+00
  0.00000000E+00  0.00000000E+00  0.00000000E+00
  0.00000000E+00  0.00000000E+00  0.00000000E+00
  0.00000000E+00  0.00000000E+00  0.00000000E+00
  0.00000000E+00  0.00000000E+00  0.00000000E+00
  0.00000000E+00  0.00000000E+00  0.00000000E+00
  0.00000000E+00  0.00000000E+00  0.00000000E+00
  0.00000000E+00  0.00000000E+00  0.00000000E+00
  0.00000000E+00  0.00000000E+00  0.00000000E+00
  0.00000000E+00  0.00000000E+00  0.00000000E+00
  0.00000000E+00  0.00000000E+00  0.00000000E+00
  0.00000000E+00  0.00000000E+00  0.00000000E+00
  0.00000000E+00  0.00000000E+00  0.00000000E+00
  0.00000000E+00  0.00000000E+00  0.00000000E+00
  0.00000000E+00  0.00000000E+00  0.00000000E+00
  0.00000000E+00  0.00000000E+00  0.00000000E+00
  0.00000000E+00  0.00000000E+00  0.00000000E+00
  0.00000000E+00  0.00000000E+00  0.00000000E+00
  0.00000000E+00  0.00000000E+00  0.00000000E+00