La1 Mn1 O3                              
   1.00000000000000     
    15.7527354778539106   -0.0000000000000000    0.0000000000000000
    -0.0000000000000000   15.7527354778539106   -0.0000000000000000
     0.0000000000000000   -0.0000000000000000   15.7527354778539106
   La   Mn   O 
    64    64   192
Direct
  0.0000000000000000  0.0000000000000000 -0.0000000000000000
 -0.0000000000000000  0.0000000000000000  0.2500000000000000
 -0.0000000000000000  0.0000000000000000  0.5000000000000000
 -0.0000000000000000  0.0000000000000000  0.7499999850000023
 -0.0000000000000000  0.2500000000000000 -0.0000000000000000
 -0.0000000000000000  0.2500000000000000  0.2500000000000000
 -0.0000000000000000  0.2500000000000000  0.5000000000000000
  0.0000000000000000  0.2500000000000000  0.7499999850000023
 -0.0000000000000000  0.5000000000000000 -0.0000000000000000
 -0.0000000000000000  0.5000000000000000  0.2500000000000000
  0.0000000000000000  0.5000000000000000  0.5000000000000000
 -0.0000000000000000  0.5000000000000000  0.7499999850000023
 -0.0000000000000000  0.7499999850000023 -0.0000000000000000
 -0.0000000000000000  0.7499999850000023  0.2500000000000000
  0.0000000000000000  0.7499999850000023  0.5000000000000000
 -0.0000000000000000  0.7499999850000023  0.7499999850000023
  0.2500000000000000 -0.0000000000000000  0.0000000000000000
  0.2500000000000000  0.0000000000000000  0.2500000000000000
  0.2500000000000000  0.0000000000000000  0.5000000000000000
  0.2500000000000000  0.0000000000000000  0.7499999850000023
  0.2500000000000000  0.2500000000000000 -0.0000000000000000
  0.2500000000000000  0.2500000000000000  0.2500000000000000
  0.2500000000000000  0.2500000000000000  0.5000000000000000
  0.2500000000000000  0.2500000000000000  0.7499999850000023
  0.2500000000000000  0.5000000000000000 -0.0000000000000000
  0.2500000000000000  0.5000000000000000  0.2500000000000000
  0.2500000000000000  0.5000000000000000  0.5000000000000000
  0.2500000000000000  0.5000000000000000  0.7499999850000023
  0.2500000000000000  0.7499999850000023 -0.0000000000000000
  0.2500000000000000  0.7499999850000023  0.2500000000000000
  0.2500000000000000  0.7499999850000023  0.5000000000000000
  0.2500000000000000  0.7499999850000023  0.7499999850000023
  0.5000000000000000 -0.0000000000000000 -0.0000000000000000
  0.5000000000000000  0.0000000000000000  0.2500000000000000
  0.5000000000000000 -0.0000000000000000  0.5000000000000000
  0.5000000000000000 -0.0000000000000000  0.7499999850000023
  0.5000000000000000  0.2500000000000000 -0.0000000000000000
  0.5000000000000000  0.2500000000000000  0.2500000000000000
  0.5000000000000000  0.2500000000000000  0.5000000000000000
  0.5000000000000000  0.2500000000000000  0.7499999850000023
  0.5000000000000000  0.5000000000000000 -0.0000000000000000
  0.5000000000000000  0.5000000000000000  0.2500000000000000
  0.5000000000000000  0.5000000000000000  0.5000000000000000
  0.5000000000000000  0.5000000000000000  0.7499999850000023
  0.5000000000000000  0.7499999850000023 -0.0000000000000000
  0.5000000000000000  0.7499999850000023  0.2500000000000000
  0.5000000000000000  0.7499999850000023  0.5000000000000000
  0.5000000000000000  0.7499999850000023  0.7499999850000023
  0.7499999850000023 -0.0000000000000000 -0.0000000000000000
  0.7499999850000023 -0.0000000000000000  0.2500000000000000
  0.7499999850000023 -0.0000000000000000  0.5000000000000000
  0.7499999850000023  0.0000000000000000  0.7499999850000023
  0.7499999850000023  0.2500000000000000 -0.0000000000000000
  0.7499999850000023  0.2500000000000000  0.2500000000000000
  0.7499999850000023  0.2500000000000000  0.5000000000000000
  0.7499999850000023  0.2500000000000000  0.7499999850000023
  0.7499999850000023  0.5000000000000000 -0.0000000000000000
  0.7499999850000023  0.5000000000000000  0.2500000000000000
  0.7499999850000023  0.5000000000000000  0.5000000000000000
  0.7499999850000023  0.5000000000000000  0.7499999850000023
  0.7499999850000023  0.7499999850000023 -0.0000000000000000
  0.7499999850000023  0.7499999850000023  0.2500000000000000
  0.7499999850000023  0.7499999850000023  0.5000000000000000
  0.7499999850000023  0.7499999850000023  0.7499999850000023
  0.1250000000000000  0.1250000000000000  0.1250000000000000
  0.1250000000000000  0.1250000000000000  0.3749999919999993
  0.1250000000000000  0.1250000000000000  0.6249999770000016
  0.1250000000000000  0.1250000000000000  0.8749999919999993
  0.1250000000000000  0.3749999919999993  0.1250000000000000
  0.1250000000000000  0.3749999919999993  0.3749999919999993
  0.1250000000000000  0.3749999919999993  0.6249999770000016
  0.1250000000000000  0.3749999919999993  0.8749999919999993
  0.1250000000000000  0.6249999770000016  0.1250000000000000
  0.1250000000000000  0.6249999770000016  0.3749999919999993
  0.1250000000000000  0.6249999770000016  0.6249999770000016
  0.1250000000000000  0.6249999770000016  0.8749999919999993
  0.1250000000000000  0.8749999919999993  0.1250000000000000
  0.1250000000000000  0.8749999919999993  0.3749999919999993
  0.1250000000000000  0.8749999919999993  0.6249999770000016
  0.1250000000000000  0.8749999919999993  0.8749999919999993
  0.3749999919999993  0.1250000000000000  0.1250000000000000
  0.3749999919999993  0.1250000000000000  0.3749999919999993
  0.3749999919999993  0.1250000000000000  0.6249999770000016
  0.3749999919999993  0.1250000000000000  0.8749999919999993
  0.3749999919999993  0.3749999919999993  0.1250000000000000
  0.3749999919999993  0.3749999919999993  0.3749999919999993
  0.3749999919999993  0.3749999919999993  0.6249999770000016
  0.3749999919999993  0.3749999919999993  0.8749999919999993
  0.3749999919999993  0.6249999770000016  0.1250000000000000
  0.3749999919999993  0.6249999770000016  0.3749999919999993
  0.3749999919999993  0.6249999770000016  0.6249999770000016
  0.3749999919999993  0.6249999770000016  0.8749999919999993
  0.3749999919999993  0.8749999919999993  0.1250000000000000
  0.3749999919999993  0.8749999919999993  0.3749999919999993
  0.3749999919999993  0.8749999919999993  0.6249999770000016
  0.3749999919999993  0.8749999919999993  0.8749999919999993
  0.6249999770000016  0.1250000000000000  0.1250000000000000
  0.6249999770000016  0.1250000000000000  0.3749999919999993
  0.6249999770000016  0.1250000000000000  0.6249999770000016
  0.6249999770000016  0.1250000000000000  0.8749999919999993
  0.6249999770000016  0.3749999919999993  0.1250000000000000
  0.6249999770000016  0.3749999919999993  0.3749999919999993
  0.6249999770000016  0.3749999919999993  0.6249999770000016
  0.6249999770000016  0.3749999919999993  0.8749999919999993
  0.6249999770000016  0.6249999770000016  0.1250000000000000
  0.6249999770000016  0.6249999770000016  0.3749999919999993
  0.6249999770000016  0.6249999770000016  0.6249999770000016
  0.6249999770000016  0.6249999770000016  0.8749999919999993
  0.6249999770000016  0.8749999919999993  0.1250000000000000
  0.6249999770000016  0.8749999919999993  0.3749999919999993
  0.6249999770000016  0.8749999919999993  0.6249999770000016
  0.6249999770000016  0.8749999919999993  0.8749999919999993
  0.8749999919999993  0.1250000000000000  0.1250000000000000
  0.8749999919999993  0.1250000000000000  0.3749999919999993
  0.8749999919999993  0.1250000000000000  0.6249999770000016
  0.8749999919999993  0.1250000000000000  0.8749999919999993
  0.8749999919999993  0.3749999919999993  0.1250000000000000
  0.8749999919999993  0.3749999919999993  0.3749999919999993
  0.8749999919999993  0.3749999919999993  0.6249999770000016
  0.8749999919999993  0.3749999919999993  0.8749999919999993
  0.8749999919999993  0.6249999770000016  0.1250000000000000
  0.8749999919999993  0.6249999770000016  0.3749999919999993
  0.8749999919999993  0.6249999770000016  0.6249999770000016
  0.8749999919999993  0.6249999770000016  0.8749999919999993
  0.8749999919999993  0.8749999919999993  0.1250000000000000
  0.8749999919999993  0.8749999919999993  0.3749999919999993
  0.8749999919999993  0.8749999919999993  0.6249999770000016
  0.8749999919999993  0.8749999919999993  0.8749999919999993
  0.0000000000000000  0.1250000000000000  0.1250000000000000
  0.0000000000000000  0.1250000000000000  0.3749999919999993
 -0.0000000000000000  0.1250000000000000  0.6249999770000016
 -0.0000000000000000  0.1250000000000000  0.8749999919999993
 -0.0000000000000000  0.3749999919999993  0.1250000000000000
 -0.0000000000000000  0.3749999919999993  0.3749999919999993
 -0.0000000000000000  0.3749999919999993  0.6249999770000016
 -0.0000000000000000  0.3749999919999993  0.8749999919999993
  0.0000000000000000  0.6249999770000016  0.1250000000000000
  0.0000000000000000  0.6249999770000016  0.3749999919999993
  0.0000000000000000  0.6249999770000016  0.6249999770000016
 -0.0000000000000000  0.6249999770000016  0.8749999919999993
  0.0000000000000000  0.8749999919999993  0.1250000000000000
 -0.0000000000000000  0.8749999919999993  0.3749999919999993
 -0.0000000000000000  0.8749999919999993  0.6249999770000016
  0.0000000000000000  0.8749999919999993  0.8749999919999993
  0.2500000000000000  0.1250000000000000  0.1250000000000000
  0.2500000000000000  0.1250000000000000  0.3749999919999993
  0.2500000000000000  0.1250000000000000  0.6249999770000016
  0.2500000000000000  0.1250000000000000  0.8749999919999993
  0.2500000000000000  0.3749999919999993  0.1250000000000000
  0.2500000000000000  0.3749999919999993  0.3749999919999993
  0.2500000000000000  0.3749999919999993  0.6249999770000016
  0.2500000000000000  0.3749999919999993  0.8749999919999993
  0.2500000000000000  0.6249999770000016  0.1250000000000000
  0.2500000000000000  0.6249999770000016  0.3749999919999993
  0.2500000000000000  0.6249999770000016  0.6249999770000016
  0.2500000000000000  0.6249999770000016  0.8749999919999993
  0.2500000000000000  0.8749999919999993  0.1250000000000000
  0.2500000000000000  0.8749999919999993  0.3749999919999993
  0.2500000000000000  0.8749999919999993  0.6249999770000016
  0.2500000000000000  0.8749999919999993  0.8749999919999993
  0.5000000000000000  0.1250000000000000  0.1250000000000000
  0.5000000000000000  0.1250000000000000  0.3749999919999993
  0.5000000000000000  0.1250000000000000  0.6249999770000016
  0.5000000000000000  0.1250000000000000  0.8749999919999993
  0.5000000000000000  0.3749999919999993  0.1250000000000000
  0.5000000000000000  0.3749999919999993  0.3749999919999993
  0.5000000000000000  0.3749999919999993  0.6249999770000016
  0.5000000000000000  0.3749999919999993  0.8749999919999993
  0.5000000000000000  0.6249999770000016  0.1250000000000000
  0.5000000000000000  0.6249999770000016  0.3749999919999993
  0.5000000000000000  0.6249999770000016  0.6249999770000016
  0.5000000000000000  0.6249999770000016  0.8749999919999993
  0.5000000000000000  0.8749999919999993  0.1250000000000000
  0.5000000000000000  0.8749999919999993  0.3749999919999993
  0.5000000000000000  0.8749999919999993  0.6249999770000016
  0.5000000000000000  0.8749999919999993  0.8749999919999993
  0.7499999850000023  0.1250000000000000  0.1250000000000000
  0.7499999850000023  0.1250000000000000  0.3749999919999993
  0.7499999850000023  0.1250000000000000  0.6249999770000016
  0.7499999850000023  0.1250000000000000  0.8749999919999993
  0.7499999850000023  0.3749999919999993  0.1250000000000000
  0.7499999850000023  0.3749999919999993  0.3749999919999993
  0.7499999850000023  0.3749999919999993  0.6249999770000016
  0.7499999850000023  0.3749999919999993  0.8749999919999993
  0.7499999850000023  0.6249999770000016  0.1250000000000000
  0.7499999850000023  0.6249999770000016  0.3749999919999993
  0.7499999850000023  0.6249999770000016  0.6249999770000016
  0.7499999850000023  0.6249999770000016  0.8749999919999993
  0.7499999850000023  0.8749999919999993  0.1250000000000000
  0.7499999850000023  0.8749999919999993  0.3749999919999993
  0.7499999850000023  0.8749999919999993  0.6249999770000016
  0.7499999850000023  0.8749999919999993  0.8749999919999993
  0.1250000000000000  0.1250000000000000  0.0000000000000000
  0.1250000000000000  0.1250000000000000  0.2500000000000000
  0.1250000000000000  0.1250000000000000  0.5000000000000000
  0.1250000000000000  0.1250000000000000  0.7499999850000023
  0.1250000000000000  0.3749999919999993 -0.0000000000000000
  0.1250000000000000  0.3749999919999993  0.2500000000000000
  0.1250000000000000  0.3749999919999993  0.5000000000000000
  0.1250000000000000  0.3749999919999993  0.7499999850000023
  0.1250000000000000  0.6249999770000016 -0.0000000000000000
  0.1250000000000000  0.6249999770000016  0.2500000000000000
  0.1250000000000000  0.6249999770000016  0.5000000000000000
  0.1250000000000000  0.6249999770000016  0.7499999850000023
  0.1250000000000000  0.8749999919999993 -0.0000000000000000
  0.1250000000000000  0.8749999919999993  0.2500000000000000
  0.1250000000000000  0.8749999919999993  0.5000000000000000
  0.1250000000000000  0.8749999919999993  0.7499999850000023
  0.3749999919999993  0.1250000000000000 -0.0000000000000000
  0.3749999919999993  0.1250000000000000  0.2500000000000000
  0.3749999919999993  0.1250000000000000  0.5000000000000000
  0.3749999919999993  0.1250000000000000  0.7499999850000023
  0.3749999919999993  0.3749999919999993 -0.0000000000000000
  0.3749999919999993  0.3749999919999993  0.2500000000000000
  0.3749999919999993  0.3749999919999993  0.5000000000000000
  0.3749999919999993  0.3749999919999993  0.7499999850000023
  0.3749999919999993  0.6249999770000016 -0.0000000000000000
  0.3749999919999993  0.6249999770000016  0.2500000000000000
  0.3749999919999993  0.6249999770000016  0.5000000000000000
  0.3749999919999993  0.6249999770000016  0.7499999850000023
  0.3749999919999993  0.8749999919999993 -0.0000000000000000
  0.3749999919999993  0.8749999919999993  0.2500000000000000
  0.3749999919999993  0.8749999919999993  0.5000000000000000
  0.3749999919999993  0.8749999919999993  0.7499999850000023
  0.6249999770000016  0.1250000000000000 -0.0000000000000000
  0.6249999770000016  0.1250000000000000  0.2500000000000000
  0.6249999770000016  0.1250000000000000  0.5000000000000000
  0.6249999770000016  0.1250000000000000  0.7499999850000023
  0.6249999770000016  0.3749999919999993 -0.0000000000000000
  0.6249999770000016  0.3749999919999993  0.2500000000000000
  0.6249999770000016  0.3749999919999993  0.5000000000000000
  0.6249999770000016  0.3749999919999993  0.7499999850000023
  0.6249999770000016  0.6249999770000016 -0.0000000000000000
  0.6249999770000016  0.6249999770000016  0.2500000000000000
  0.6249999770000016  0.6249999770000016  0.5000000000000000
  0.6249999770000016  0.6249999770000016  0.7499999850000023
  0.6249999770000016  0.8749999919999993  0.0000000000000000
  0.6249999770000016  0.8749999919999993  0.2500000000000000
  0.6249999770000016  0.8749999919999993  0.5000000000000000
  0.6249999770000016  0.8749999919999993  0.7499999850000023
  0.8749999919999993  0.1250000000000000 -0.0000000000000000
  0.8749999919999993  0.1250000000000000  0.2500000000000000
  0.8749999919999993  0.1250000000000000  0.5000000000000000
  0.8749999919999993  0.1250000000000000  0.7499999850000023
  0.8749999919999993  0.3749999919999993 -0.0000000000000000
  0.8749999919999993  0.3749999919999993  0.2500000000000000
  0.8749999919999993  0.3749999919999993  0.5000000000000000
  0.8749999919999993  0.3749999919999993  0.7499999850000023
  0.8749999919999993  0.6249999770000016  0.0000000000000000
  0.8749999919999993  0.6249999770000016  0.2500000000000000
  0.8749999919999993  0.6249999770000016  0.5000000000000000
  0.8749999919999993  0.6249999770000016  0.7499999850000023
  0.8749999919999993  0.8749999919999993 -0.0000000000000000
  0.8749999919999993  0.8749999919999993  0.2500000000000000
  0.8749999919999993  0.8749999919999993  0.5000000000000000
  0.8749999919999993  0.8749999919999993  0.7499999850000023
  0.1250000000000000  0.0000000000000000  0.1250000000000000
  0.1250000000000000  0.0000000000000000  0.3749999919999993
  0.1250000000000000  0.0000000000000000  0.6249999770000016
  0.1250000000000000  0.0000000000000000  0.8749999919999993
  0.1250000000000000  0.2500000000000000  0.1250000000000000
  0.1250000000000000  0.2500000000000000  0.3749999919999993
  0.1250000000000000  0.2500000000000000  0.6249999770000016
  0.1250000000000000  0.2500000000000000  0.8749999919999993
  0.1250000000000000  0.5000000000000000  0.1250000000000000
  0.1250000000000000  0.5000000000000000  0.3749999919999993
  0.1250000000000000  0.5000000000000000  0.6249999770000016
  0.1250000000000000  0.5000000000000000  0.8749999919999993
  0.1250000000000000  0.7499999850000023  0.1250000000000000
  0.1250000000000000  0.7499999850000023  0.3749999919999993
  0.1250000000000000  0.7499999850000023  0.6249999770000016
  0.1250000000000000  0.7499999850000023  0.8749999919999993
  0.3749999919999993  0.0000000000000000  0.1250000000000000
  0.3749999919999993 -0.0000000000000000  0.3749999919999993
  0.3749999919999993 -0.0000000000000000  0.6249999770000016
  0.3749999919999993  0.0000000000000000  0.8749999919999993
  0.3749999919999993  0.2500000000000000  0.1250000000000000
  0.3749999919999993  0.2500000000000000  0.3749999919999993
  0.3749999919999993  0.2500000000000000  0.6249999770000016
  0.3749999919999993  0.2500000000000000  0.8749999919999993
  0.3749999919999993  0.5000000000000000  0.1250000000000000
  0.3749999919999993  0.5000000000000000  0.3749999919999993
  0.3749999919999993  0.5000000000000000  0.6249999770000016
  0.3749999919999993  0.5000000000000000  0.8749999919999993
  0.3749999919999993  0.7499999850000023  0.1250000000000000
  0.3749999919999993  0.7499999850000023  0.3749999919999993
  0.3749999919999993  0.7499999850000023  0.6249999770000016
  0.3749999919999993  0.7499999850000023  0.8749999919999993
  0.6249999770000016  0.0000000000000000  0.1250000000000000
  0.6249999770000016  0.0000000000000000  0.3749999919999993
  0.6249999770000016  0.0000000000000000  0.6249999770000016
  0.6249999770000016 -0.0000000000000000  0.8749999919999993
  0.6249999770000016  0.2500000000000000  0.1250000000000000
  0.6249999770000016  0.2500000000000000  0.3749999919999993
  0.6249999770000016  0.2500000000000000  0.6249999770000016
  0.6249999770000016  0.2500000000000000  0.8749999919999993
  0.6249999770000016  0.5000000000000000  0.1250000000000000
  0.6249999770000016  0.5000000000000000  0.3749999919999993
  0.6249999770000016  0.5000000000000000  0.6249999770000016
  0.6249999770000016  0.5000000000000000  0.8749999919999993
  0.6249999770000016  0.7499999850000023  0.1250000000000000
  0.6249999770000016  0.7499999850000023  0.3749999919999993
  0.6249999770000016  0.7499999850000023  0.6249999770000016
  0.6249999770000016  0.7499999850000023  0.8749999919999993
  0.8749999919999993  0.0000000000000000  0.1250000000000000
  0.8749999919999993  0.0000000000000000  0.3749999919999993
  0.8749999919999993  0.0000000000000000  0.6249999770000016
  0.8749999919999993  0.0000000000000000  0.8749999919999993
  0.8749999919999993  0.2500000000000000  0.1250000000000000
  0.8749999919999993  0.2500000000000000  0.3749999919999993
  0.8749999919999993  0.2500000000000000  0.6249999770000016
  0.8749999919999993  0.2500000000000000  0.8749999919999993
  0.8749999919999993  0.5000000000000000  0.1250000000000000
  0.8749999919999993  0.5000000000000000  0.3749999919999993
  0.8749999919999993  0.5000000000000000  0.6249999770000016
  0.8749999919999993  0.5000000000000000  0.8749999919999993
  0.8749999919999993  0.7499999850000023  0.1250000000000000
  0.8749999919999993  0.7499999850000023  0.3749999919999993
  0.8749999919999993  0.7499999850000023  0.6249999770000016
  0.8749999919999993  0.7499999850000023  0.8749999919999993
 
  0.00000000E+00  0.00000000E+00  0.00000000E+00
  0.00000000E+00  0.00000000E+00  0.00000000E+00
  0.00000000E+00  0.00000000E+00  0.00000000E+00
  0.00000000E+00  0.00000000E+00  0.00000000E+00
  0.00000000E+00  0.00000000E+00  0.00000000E+00
  0.00000000E+00  0.00000000E+00  0.00000000E+00
  0.00000000E+00  0.00000000E+00  0.00000000E+00
  0.00000000E+00  0.00000000E+00  0.00000000E+00
  0.00000000E+00  0.00000000E+00  0.00000000E+00
  0.00000000E+00  0.00000000E+00  0.00000000E+00
  0.00000000E+00  0.00000000E+00  0.00000000E+00
  0.00000000E+00  0.00000000E+00  0.00000000E+00
  0.00000000E+00  0.00000000E+00  0.00000000E+00
  0.00000000E+00  0.00000000E+00  0.00000000E+00
  0.00000000E+00  0.00000000E+00  0.00000000E+00
  0.00000000E+00  0.00000000E+00  0.00000000E+00
  0.00000000E+00  0.00000000E+00  0.00000000E+00
  0.00000000E+00  0.00000000E+00  0.00000000E+00
  0.00000000E+00  0.00000000E+00  0.00000000E+00
  0.00000000E+00  0.00000000E+00  0.00000000E+00
  0.00000000E+00  0.00000000E+00  0.00000000E+00
  0.00000000E+00  0.00000000E+00  0.00000000E+00
  0.00000000E+00  0.00000000E+00  0.00000000E+00
  0.00000000E+00  0.00000000E+00  0.00000000E+00
  0.00000000E+00  0.00000000E+00  0.00000000E+00
  0.00000000E+00  0.00000000E+00  0.00000000E+00
  0.00000000E+00  0.00000000E+00  0.00000000E+00
  0.00000000E+00  0.00000000E+00  0.00000000E+00
  0.00000000E+00  0.00000000E+00  0.00000000E+00
  0.00000000E+00  0.00000000E+00  0.00000000E+00
  0.00000000E+00  0.00000000E+00  0.00000000E+00
  0.00000000E+00  0.00000000E+00  0.00000000E+00
  0.00000000E+00  0.00000000E+00  0.00000000E+00
  0.00000000E+00  0.00000000E+00  0.00000000E+00
  0.00000000E+00  0.00000000E+00  0.00000000E+00
  0.00000000E+00  0.00000000E+00  0.00000000E+00
  0.00000000E+00  0.00000000E+00  0.00000000E+00
  0.00000000E+00  0.00000000E+00  0.00000000E+00
  0.00000000E+00  0.00000000E+00  0.00000000E+00
  0.00000000E+00  0.00000000E+00  0.00000000E+00
  0.00000000E+00  0.00000000E+00  0.00000000E+00
  0.00000000E+00  0.00000000E+00  0.00000000E+00
  0.00000000E+00  0.00000000E+00  0.00000000E+00
  0.00000000E+00  0.00000000E+00  0.00000000E+00
  0.00000000E+00  0.00000000E+00  0.00000000E+00
  0.00000000E+00  0.00000000E+00  0.00000000E+00
  0.00000000E+00  0.00000000E+00  0.00000000E+00
  0.00000000E+00  0.00000000E+00  0.00000000E+00
  0.00000000E+00  0.00000000E+00  0.00000000E+00
  0.00000000E+00  0.00000000E+00  0.00000000E+00
  0.00000000E+00  0.00000000E+00  0.00000000E+00
  0.00000000E+00  0.00000000E+00  0.00000000E+00
  0.00000000E+00  0.00000000E+00  0.00000000E+00
  0.00000000E+00  0.00000000E+00  0.00000000E+00
  0.00000000E+00  0.00000000E+00  0.00000000E+00
  0.00000000E+00  0.00000000E+00  0.00000000E+00
  0.00000000E+00  0.00000000E+00  0.00000000E+00
  0.00000000E+00  0.00000000E+00  0.00000000E+00
  0.00000000E+00  0.00000000E+00  0.00000000E+00
  0.00000000E+00  0.00000000E+00  0.00000000E+00
  0.00000000E+00  0.00000000E+00  0.00000000E+00
  0.00000000E+00  0.00000000E+00  0.00000000E+00
  0.00000000E+00  0.00000000E+00  0.00000000E+00
  0.00000000E+00  0.00000000E+00  0.00000000E+00
  0.00000000E+00  0.00000000E+00  0.00000000E+00
  0.00000000E+00  0.00000000E+00  0.00000000E+00
  0.00000000E+00  0.00000000E+00  0.00000000E+00
  0.00000000E+00  0.00000000E+00  0.00000000E+00
  0.00000000E+00  0.00000000E+00  0.00000000E+00
  0.00000000E+00  0.00000000E+00  0.00000000E+00
  0.00000000E+00  0.00000000E+00  0.00000000E+00
  0.00000000E+00  0.00000000E+00  0.00000000E+00
  0.00000000E+00  0.00000000E+00  0.00000000E+00
  0.00000000E+00  0.00000000E+00  0.00000000E+00
  0.00000000E+00  0.00000000E+00  0.00000000E+00
  0.00000000E+00  0.00000000E+00  0.00000000E+00
  0.00000000E+00  0.00000000E+00  0.00000000E+00
  0.00000000E+00  0.00000000E+00  0.00000000E+00
  0.00000000E+00  0.00000000E+00  0.00000000E+00
  0.00000000E+00  0.00000000E+00  0.00000000E+00
  0.00000000E+00  0.00000000E+00  0.00000000E+00
  0.00000000E+00  0.00000000E+00  0.00000000E+00
  0.00000000E+00  0.00000000E+00  0.00000000E+00
  0.00000000E+00  0.00000000E+00  0.00000000E+00
  0.00000000E+00  0.00000000E+00  0.00000000E+00
  0.00000000E+00  0.00000000E+00  0.00000000E+00
  0.00000000E+00  0.00000000E+00  0.00000000E+00
  0.00000000E+00  0.00000000E+00  0.00000000E+00
  0.00000000E+00  0.00000000E+00  0.00000000E+00
  0.00000000E+00  0.00000000E+00  0.00000000E+00
  0.00000000E+00  0.00000000E+00  0.00000000E+00
  0.00000000E+00  0.00000000E+00  0.00000000E+00
  0.00000000E+00  0.00000000E+00  0.00000000E+00
  0.00000000E+00  0.00000000E+00  0.00000000E+00
  0.00000000E+00  0.00000000E+00  0.00000000E+00
  0.00000000E+00  0.00000000E+00  0.00000000E+00
  0.00000000E+00  0.00000000E+00  0.00000000E+00
  0.00000000E+00  0.00000000E+00  0.00000000E+00
  0.00000000E+00  0.00000000E+00  0.00000000E+00
  0.00000000E+00  0.00000000E+00  0.00000000E+00
  0.00000000E+00  0.00000000E+00  0.00000000E+00
  0.00000000E+00  0.00000000E+00  0.00000000E+00
  0.00000000E+00  0.00000000E+00  0.00000000E+00
  0.00000000E+00  0.00000000E+00  0.00000000E+00
  0.00000000E+00  0.00000000E+00  0.00000000E+00
  0.00000000E+00  0.00000000E+00  0.00000000E+00
  0.00000000E+00  0.00000000E+00  0.00000000E+00
  0.00000000E+00  0.00000000E+00  0.00000000E+00
  0.00000000E+00  0.00000000E+00  0.00000000E+00
  0.00000000E+00  0.00000000E+00  0.00000000E+00
  0.00000000E+00  0.00000000E+00  0.00000000E+00
  0.00000000E+00  0.00000000E+00  0.00000000E+00
  0.00000000E+00  0.00000000E+00  0.00000000E+00
  0.00000000E+00  0.00000000E+00  0.00000000E+00
  0.00000000E+00  0.00000000E+00  0.00000000E+00
  0.00000000E+00  0.00000000E+00  0.00000000E+00
  0.00000000E+00  0.00000000E+00  0.00000000E+00
  0.00000000E+00  0.00000000E+00  0.00000000E+00
  0.00000000E+00  0.00000000E+00  0.00000000E+00
  0.00000000E+00  0.00000000E+00  0.00000000E+00
  0.00000000E+00  0.00000000E+00  0.00000000E+00
  0.00000000E+00  0.00000000E+00  0.00000000E+00
  0.00000000E+00  0.00000000E+00  0.00000000E+00
  0.00000000E+00  0.00000000E+00  0.00000000E+00
  0.00000000E+00  0.00000000E+00  0.00000000E+00
  0.00000000E+00  0.00000000E+00  0.00000000E+00
  0.00000000E+00  0.00000000E+00  0.00000000E+00
  0.00000000E+00  0.00000000E+00  0.00000000E+00
  0.00000000E+00  0.00000000E+00  0.00000000E+00
  0.00000000E+00  0.00000000E+00  0.00000000E+00
  0.00000000E+00  0.00000000E+00  0.00000000E+00
  0.00000000E+00  0.00000000E+00  0.00000000E+00
  0.00000000E+00  0.00000000E+00  0.00000000E+00
  0.00000000E+00  0.00000000E+00  0.00000000E+00
  0.00000000E+00  0.00000000E+00  0.00000000E+00
  0.00000000E+00  0.00000000E+00  0.00000000E+00
  0.00000000E+00  0.00000000E+00  0.00000000E+00
  0.00000000E+00  0.00000000E+00  0.00000000E+00
  0.00000000E+00  0.00000000E+00  0.00000000E+00
  0.00000000E+00  0.00000000E+00  0.00000000E+00
  0.00000000E+00  0.00000000E+00  0.00000000E+00
  0.00000000E+00  0.00000000E+00  0.00000000E+00
  0.00000000E+00  0.00000000E+00  0.00000000E+00
  0.00000000E+00  0.00000000E+00  0.00000000E+00
  0.00000000E+00  0.00000000E+00  0.00000000E+00
  0.00000000E+00  0.00000000E+00  0.00000000E+00
  0.00000000E+00  0.00000000E+00  0.00000000E+00
  0.00000000E+00  0.00000000E+00  0.00000000E+00
  0.00000000E+00  0.00000000E+00  0.00000000E+00
  0.00000000E+00  0.00000000E+00  0.00000000E+00
  0.00000000E+00  0.00000000E+00  0.00000000E+00
  0.00000000E+00  0.00000000E+00  0.00000000E+00
  0.00000000E+00  0.00000000E+00  0.00000000E+00
  0.00000000E+00  0.00000000E+00  0.00000000E+00
  0.00000000E+00  0.00000000E+00  0.00000000E+00
  0.00000000E+00  0.00000000E+00  0.00000000E+00
  0.00000000E+00  0.00000000E+00  0.00000000E+00
  0.00000000E+00  0.00000000E+00  0.00000000E+00
  0.00000000E+00  0.00000000E+00  0.00000000E+00
  0.00000000E+00  0.00000000E+00  0.00000000E+00
  0.00000000E+00  0.00000000E+00  0.00000000E+00
  0.00000000E+00  0.00000000E+00  0.00000000E+00
  0.00000000E+00  0.00000000E+00  0.00000000E+00
  0.00000000E+00  0.00000000E+00  0.00000000E+00
  0.00000000E+00  0.00000000E+00  0.00000000E+00
  0.00000000E+00  0.00000000E+00  0.00000000E+00
  0.00000000E+00  0.00000000E+00  0.00000000E+00
  0.00000000E+00  0.00000000E+00  0.00000000E+00
  0.00000000E+00  0.00000000E+00  0.00000000E+00
  0.00000000E+00  0.00000000E+00  0.00000000E+00
  0.00000000E+00  0.00000000E+00  0.00000000E+00
  0.00000000E+00  0.00000000E+00  0.00000000E+00
  0.00000000E+00  0.00000000E+00  0.00000000E+00
  0.00000000E+00  0.00000000E+00  0.00000000E+00
  0.00000000E+00  0.00000000E+00  0.00000000E+00
  0.00000000E+00  0.00000000E+00  0.00000000E+00
  0.00000000E+00  0.00000000E+00  0.00000000E+00
  0.00000000E+00  0.00000000E+00  0.00000000E+00
  0.00000000E+00  0.00000000E+00  0.00000000E+00
  0.00000000E+00  0.00000000E+00  0.00000000E+00
  0.00000000E+00  0.00000000E+00  0.00000000E+00
  0.00000000E+00  0.00000000E+00  0.00000000E+00
  0.00000000E+00  0.00000000E+00  0.00000000E+00
  0.00000000E+00  0.00000000E+00  0.00000000E+00
  0.00000000E+00  0.00000000E+00  0.00000000E+00
  0.00000000E+00  0.00000000E+00  0.00000000E+00
  0.00000000E+00  0.00000000E+00  0.00000000E+00
  0.00000000E+00  0.00000000E+00  0.00000000E+00
  0.00000000E+00  0.00000000E+00  0.00000000E+00
  0.00000000E+00  0.00000000E+00  0.00000000E+00
  0.00000000E+00  0.00000000E+00  0.00000000E+00
  0.00000000E+00  0.00000000E+00  0.00000000E+00
  0.00000000E+00  0.00000000E+00  0.00000000E+00
  0.00000000E+00  0.00000000E+00  0.00000000E+00
  0.00000000E+00  0.00000000E+00  0.00000000E+00
  0.00000000E+00  0.00000000E+00  0.00000000E+00
  0.00000000E+00  0.00000000E+00  0.00000000E+00
  0.00000000E+00  0.00000000E+00  0.00000000E+00
  0.00000000E+00  0.00000000E+00  0.00000000E+00
  0.00000000E+00  0.00000000E+00  0.00000000E+00
  0.00000000E+00  0.00000000E+00  0.00000000E+00
  0.00000000E+00  0.00000000E+00  0.00000000E+00
  0.00000000E+00  0.00000000E+00  0.00000000E+00
  0.00000000E+00  0.00000000E+00  0.00000000E+00
  0.00000000E+00  0.00000000E+00  0.00000000E+00
  0.00000000E+00  0.00000000E+00  0.00000000E+00
  0.00000000E+00  0.00000000E+00  0.00000000E+00