ALGO = Fast
EDIFF = 1E-4
ENCUT = 600.0
IBRION = 2
ICHARG = 2
ISIF = 3
ISMEAR = 0
ISPIN = 2
LDAU = .TRUE.
LDAUPRINT = 1
LDAUTYPE = 2
LMAXMIX = 6
LORBIT = 11
LREAL = Auto
LWAVE = .FALSE.
NELM = 100
NSW = 99
PREC = Accurate
SIGMA = 0.05
MAGMOM = 64*0 64*4  192*0
LDAUL = 0 2 0 
LDAUU = 0.0 3.9 0.0
LDAUJ = 0.0 0.0 0.0
