La1 Mn1 O3                              
   1.00000000000000     
     7.8103157678137176    0.0000000000000000    0.0000000000000000
     0.0000000000000000    7.8103157678137176    0.0000000000000000
    -0.0000000000000000    0.0000000000000000    7.8103157678137176
   La   Mn   O    N 
     8     8    12    12
Direct
  0.0000000000000000  0.0000000000000000 -0.0000000000000000
  0.0000000000000000  0.0000000000000000  0.4999999999556337
  0.4999999999556337  0.0000000000000000 -0.0000000000000000
  0.0000000000000000  0.4999999999556337 -0.0000000000000000
  0.0000000000000000  0.4999999999556337  0.4999999999556337
  0.4999999999556337  0.0000000000000000  0.4999999999556337
  0.4999999999556337  0.4999999999556337 -0.0000000000000000
  0.4999999999556337  0.4999999999556337  0.4999999999556337
  0.2551534571257710  0.2551534571257710  0.2551534571257710
  0.7448465278274633  0.7448465278274633  0.2551534571257710
  0.7448465278274633  0.2551534571257710  0.7448465278274633
  0.2551534571257710  0.7448465278274633  0.7448465278274633
  0.2551534571257710  0.2551534571257710  0.7448465278274633
  0.7448465278274633  0.7448465278274633  0.7448465278274633
  0.7448465278274633  0.2551534571257710  0.2551534571257710
  0.2551534571257710  0.7448465278274633  0.2551534571257710
  0.0000000000000000  0.2455207092329803  0.2455207092329803
  0.0000000000000000  0.7544792757202541  0.2455207092329803
  0.0000000000000000  0.2455207092329803  0.7544792757202541
  0.0000000000000000  0.7544792757202541  0.7544792757202541
  0.2455207092329803  0.0000000000000000  0.2455207092329803
  0.2455207092329803  0.0000000000000000  0.7544792757202541
  0.7544792757202541  0.0000000000000000  0.2455207092329803
  0.7544792757202541  0.0000000000000000  0.7544792757202541
  0.2455207092329803  0.2455207092329803 -0.0000000000000000
  0.7544792757202541  0.2455207092329803 -0.0000000000000000
  0.2455207092329803  0.7544792757202541 -0.0000000000000000
  0.7544792757202541  0.7544792757202541 -0.0000000000000000
  0.4999999999556337  0.2429836063718183  0.2429836063718183
  0.4999999999556337  0.7570163785814161  0.2429836063718183
  0.4999999999556337  0.2429836063718183  0.7570163785814161
  0.4999999999556337  0.7570163785814161  0.7570163785814161
  0.2429836063718183  0.4999999999556337  0.2429836063718183
  0.2429836063718183  0.4999999999556337  0.7570163785814161
  0.7570163785814161  0.4999999999556337  0.2429836063718183
  0.7570163785814161  0.4999999999556337  0.7570163785814161
  0.2429836063718183  0.2429836063718183  0.4999999999556337
  0.7570163785814161  0.2429836063718183  0.4999999999556337
  0.2429836063718183  0.7570163785814161  0.4999999999556337
  0.7570163785814161  0.7570163785814161  0.4999999999556337
 
  0.00000000E+00  0.00000000E+00  0.00000000E+00
  0.00000000E+00  0.00000000E+00  0.00000000E+00
  0.00000000E+00  0.00000000E+00  0.00000000E+00
  0.00000000E+00  0.00000000E+00  0.00000000E+00
  0.00000000E+00  0.00000000E+00  0.00000000E+00
  0.00000000E+00  0.00000000E+00  0.00000000E+00
  0.00000000E+00  0.00000000E+00  0.00000000E+00
  0.00000000E+00  0.00000000E+00  0.00000000E+00
  0.00000000E+00  0.00000000E+00  0.00000000E+00
  0.00000000E+00  0.00000000E+00  0.00000000E+00
  0.00000000E+00  0.00000000E+00  0.00000000E+00
  0.00000000E+00  0.00000000E+00  0.00000000E+00
  0.00000000E+00  0.00000000E+00  0.00000000E+00
  0.00000000E+00  0.00000000E+00  0.00000000E+00
  0.00000000E+00  0.00000000E+00  0.00000000E+00
  0.00000000E+00  0.00000000E+00  0.00000000E+00
  0.00000000E+00  0.00000000E+00  0.00000000E+00
  0.00000000E+00  0.00000000E+00  0.00000000E+00
  0.00000000E+00  0.00000000E+00  0.00000000E+00
  0.00000000E+00  0.00000000E+00  0.00000000E+00
  0.00000000E+00  0.00000000E+00  0.00000000E+00
  0.00000000E+00  0.00000000E+00  0.00000000E+00
  0.00000000E+00  0.00000000E+00  0.00000000E+00
  0.00000000E+00  0.00000000E+00  0.00000000E+00
  0.00000000E+00  0.00000000E+00  0.00000000E+00
  0.00000000E+00  0.00000000E+00  0.00000000E+00
  0.00000000E+00  0.00000000E+00  0.00000000E+00
  0.00000000E+00  0.00000000E+00  0.00000000E+00
  0.00000000E+00  0.00000000E+00  0.00000000E+00
  0.00000000E+00  0.00000000E+00  0.00000000E+00
  0.00000000E+00  0.00000000E+00  0.00000000E+00
  0.00000000E+00  0.00000000E+00  0.00000000E+00
  0.00000000E+00  0.00000000E+00  0.00000000E+00
  0.00000000E+00  0.00000000E+00  0.00000000E+00
  0.00000000E+00  0.00000000E+00  0.00000000E+00
  0.00000000E+00  0.00000000E+00  0.00000000E+00
  0.00000000E+00  0.00000000E+00  0.00000000E+00
  0.00000000E+00  0.00000000E+00  0.00000000E+00
  0.00000000E+00  0.00000000E+00  0.00000000E+00
  0.00000000E+00  0.00000000E+00  0.00000000E+00
